--JOB AND MODE CONTROL INV -- I25D--
1 1
--FREQUENCY BANDS--
1
14 3.05 3.30   3.65 3.95   4.35   4.75   5.20   5.65   6.20   6.80   7.40   8.10   8.85 9
--FREQUENCY DATA FILES--
-
--ANISOTROPIC MODEL (IANISO ITHOM MX IVISCO CMIN CMAX)--
6  0  1  0.92  4.7
'rho'  'c11'  'c13'  'c33'  'c44'  'c66'    'Q11'  'Q13'  'Q33'  'Q44'  'Q66'
 0       0      0      0       0     1       0       0      0      0    0
--SOLVER CHOICE--
2
--REGULARIZATION (REG lambda)--
0 0.0
--LBFGS SETTINGS (MML LBFGS_TYPE)--
5 0
--OPTIMIZATION CONTROLS (MAXITER cost_conv_tol misfit_conv_tol)--
7 1.0e-3 1.0e-4
--PRECONDITIONING--
1 0.005
--GRADIENT TAPER AND SMOOTHING (GZSMTH Z1_m Z2_m USE_GR_SMOOTH)--
1 100.0 300.0 1.5 2
--GLOBAL GRID (NORD DX DZ)--
5 50 50
------------------------ TOPOGRAPHY DATA  --------------------------
221     0
0       0
20      0
40      0
60      0
80      0
100     0
120     0
140     0
160     0
180     0
200     0
220     0
240     0
260     0
280     0
300     0
320     0
340     0
360     0
380     0
400     0
420     0
440     0
460     0
480     0
500     0
520     0
540     0
560     0
580     0
600     0
620     0
640     0
660     0
680     0
700     0
720     0
740     0
760     0
780     0
800     0
820     0
840     0
860     0
880     0
900     0
920     0
940     0
960     0
980     0
1000    0
1020    0
1040    0
1060    0
1080    0
1100    0
1120    0
1140    0
1160    0
1180    0
1200    0
1220    0
1240    0
1260    0
1280    0
1300    0
1320    0
1340    0
1360    0
1380    0
1400    0
1420    0
1440    0
1460    0
1480    0
1500    0
1520    0
1540    0
1560    0
1580    0
1600    0
1620    0
1640    0
1660    0
1680    0
1700    0
1720    0
1740    0
1760    0
1780    0
1800    0
1820    0
1840    0
1860    0
1880    0
1900    0
1920    0
1940    0
1960    0
1980    0
2000    0
2020    0
2040    0
2060    0
2080    0
2100    0
2120    0
2140    0
2160    0
2180    0
2200    0
2220    0
2240    0
2260    0
2280    0
2300    0
2320    0
2340    0
2360    0
2380    0
2400    0
2420    0
2440    0
2460    0
2480    0
2500    0
2520    0
2540    0
2560    0
2580    0
2600    0
2620    0
2640    0
2660    0
2680    0
2700    0
2720    0
2740    0
2760    0
2780    0
2800    0
2820    0
2840    0
2860    0
2880    0
2900    0
2920    0
2940    0
2960    0
2980    0
3000    0
3020    0
3040    0
3060    0
3080    0
3100    0
3120    0
3140    0
3160    0
3180    0
3200    0
3220    0
3240    0
3260    0
3280    0
3300    0
3320    0
3340    0
3360    0
3380    0
3400    0
3420    0
3440    0
3460    0
3480    0
3500    0
3520    0
3540    0
3560    0
3580    0
3600    0
3620    0
3640    0
3660    0
3680    0
3700    0
3720    0
3740    0
3760    0
3780    0
3800    0
3820    0
3840    0
3860    0
3880    0
3900    0
3920    0
3940    0
3960    0
3980    0
4000    0
4020    0
4040    0
4060    0
4080    0
4100    0
4120    0
4140    0
4160    0
4180    0
4200    0
4220    0
4240    0
4260    0
4280    0
4300    0
4320    0
4340    0
4360    0
4380    0
4400    0
------------------------- sources & geophones ------------------------
100  20 0
1  3    0
240   200     0    0     20     ! S 
2205   0    -400    -20     80     ! R 
0   0     0    0     0     ! B 
0   0     0    0     0     ! T 
0   0     0    0     0     ! L 
------------------grid(MX, Z(MX))---------------------------
221
126 126 126 126 126 126 126 126 126 126 126 126 126 126 126 126 126 126 126 126 126 126 126 126 126 126 126 126 126 126 126 126 126 126 126 126 126 126 126 126 126 126 126 126 126 126 126 126 126 126 126 126 126 126 126 126 126 126 126 126 126 126 126 126 126 126 126 126 126 126 126 126 126 126 126 126 126 126 126 126 126 126 126 126 126 126 126 126 126 126 126 126 126 126 126 126 126 126 126 126 126 126 126 126 126 126 126 126 126 126 126 126 126 126 126 126 126 126 126 126 126 126 126 126 126 126 126 126 126 126 126 126 126 126 126 126 126 126 126 126 126 126 126 126 126 126 126 126 126 126 126 126 126 126 126 126 126 126 126 126 126 126 126 126 126 126 126 126 126 126 126 126 126 126 126 126 126 126 126 126 126 126 126 126 126 126 126 126 126 126 126 126 126 126 126 126 126 126 126 126 126 126 126 126 126 126 126 126 126 126 126 126 126 126 126 126 126 126 126 126 126
--------------------------- ZM(MX) ----------------------------------
0 -2500.000 -2480.000 -2460.000 -2440.000 -2420.000 -2400.000 -2380.000 -2360.000 -2340.000 -2320.000 -2300.000 -2280.000 -2260.000 -2240.000 -2220.000 -2200.000 -2180.000 -2160.000 -2140.000 -2120.000 -2100.000 -2080.000 -2060.000 -2040.000 -2020.000 -2000.000 -1980.000 -1960.000 -1940.000 -1920.000 -1900.000 -1880.000 -1860.000 -1840.000 -1820.000 -1800.000 -1780.000 -1760.000 -1740.000 -1720.000 -1700.000 -1680.000 -1660.000 -1640.000 -1620.000 -1600.000 -1580.000 -1560.000 -1540.000 -1520.000 -1500.000 -1480.000 -1460.000 -1440.000 -1420.000 -1400.000 -1380.000 -1360.000 -1340.000 -1320.000 -1300.000 -1280.000 -1260.000 -1240.000 -1220.000 -1200.000 -1180.000 -1160.000 -1140.000 -1120.000 -1100.000 -1080.000 -1060.000 -1040.000 -1020.000 -1000.000 -980.000 -960.000 -940.000 -920.000 -900.000 -880.000 -860.000 -840.000 -820.000 -800.000 -780.000 -760.000 -740.000 -720.000 -700.000 -680.000 -660.000 -640.000 -620.000 -600.000 -580.000 -560.000 -540.000 -520.000 -500.000 -480.000 -460.000 -440.000 -420.000 -400.000 -380.000 -360.000 -340.000 -320.000 -300.000 -280.000 -260.000 -240.000 -220.000 -200.000 -180.000 -160.000 -140.000 -120.000 -100.000 -80.000 -60.000 -40.000 -20.000 0.000
20 -2500.000 -2480.000 -2460.000 -2440.000 -2420.000 -2400.000 -2380.000 -2360.000 -2340.000 -2320.000 -2300.000 -2280.000 -2260.000 -2240.000 -2220.000 -2200.000 -2180.000 -2160.000 -2140.000 -2120.000 -2100.000 -2080.000 -2060.000 -2040.000 -2020.000 -2000.000 -1980.000 -1960.000 -1940.000 -1920.000 -1900.000 -1880.000 -1860.000 -1840.000 -1820.000 -1800.000 -1780.000 -1760.000 -1740.000 -1720.000 -1700.000 -1680.000 -1660.000 -1640.000 -1620.000 -1600.000 -1580.000 -1560.000 -1540.000 -1520.000 -1500.000 -1480.000 -1460.000 -1440.000 -1420.000 -1400.000 -1380.000 -1360.000 -1340.000 -1320.000 -1300.000 -1280.000 -1260.000 -1240.000 -1220.000 -1200.000 -1180.000 -1160.000 -1140.000 -1120.000 -1100.000 -1080.000 -1060.000 -1040.000 -1020.000 -1000.000 -980.000 -960.000 -940.000 -920.000 -900.000 -880.000 -860.000 -840.000 -820.000 -800.000 -780.000 -760.000 -740.000 -720.000 -700.000 -680.000 -660.000 -640.000 -620.000 -600.000 -580.000 -560.000 -540.000 -520.000 -500.000 -480.000 -460.000 -440.000 -420.000 -400.000 -380.000 -360.000 -340.000 -320.000 -300.000 -280.000 -260.000 -240.000 -220.000 -200.000 -180.000 -160.000 -140.000 -120.000 -100.000 -80.000 -60.000 -40.000 -20.000 0.000
40 -2500.000 -2480.000 -2460.000 -2440.000 -2420.000 -2400.000 -2380.000 -2360.000 -2340.000 -2320.000 -2300.000 -2280.000 -2260.000 -2240.000 -2220.000 -2200.000 -2180.000 -2160.000 -2140.000 -2120.000 -2100.000 -2080.000 -2060.000 -2040.000 -2020.000 -2000.000 -1980.000 -1960.000 -1940.000 -1920.000 -1900.000 -1880.000 -1860.000 -1840.000 -1820.000 -1800.000 -1780.000 -1760.000 -1740.000 -1720.000 -1700.000 -1680.000 -1660.000 -1640.000 -1620.000 -1600.000 -1580.000 -1560.000 -1540.000 -1520.000 -1500.000 -1480.000 -1460.000 -1440.000 -1420.000 -1400.000 -1380.000 -1360.000 -1340.000 -1320.000 -1300.000 -1280.000 -1260.000 -1240.000 -1220.000 -1200.000 -1180.000 -1160.000 -1140.000 -1120.000 -1100.000 -1080.000 -1060.000 -1040.000 -1020.000 -1000.000 -980.000 -960.000 -940.000 -920.000 -900.000 -880.000 -860.000 -840.000 -820.000 -800.000 -780.000 -760.000 -740.000 -720.000 -700.000 -680.000 -660.000 -640.000 -620.000 -600.000 -580.000 -560.000 -540.000 -520.000 -500.000 -480.000 -460.000 -440.000 -420.000 -400.000 -380.000 -360.000 -340.000 -320.000 -300.000 -280.000 -260.000 -240.000 -220.000 -200.000 -180.000 -160.000 -140.000 -120.000 -100.000 -80.000 -60.000 -40.000 -20.000 0.000
60 -2500.000 -2480.000 -2460.000 -2440.000 -2420.000 -2400.000 -2380.000 -2360.000 -2340.000 -2320.000 -2300.000 -2280.000 -2260.000 -2240.000 -2220.000 -2200.000 -2180.000 -2160.000 -2140.000 -2120.000 -2100.000 -2080.000 -2060.000 -2040.000 -2020.000 -2000.000 -1980.000 -1960.000 -1940.000 -1920.000 -1900.000 -1880.000 -1860.000 -1840.000 -1820.000 -1800.000 -1780.000 -1760.000 -1740.000 -1720.000 -1700.000 -1680.000 -1660.000 -1640.000 -1620.000 -1600.000 -1580.000 -1560.000 -1540.000 -1520.000 -1500.000 -1480.000 -1460.000 -1440.000 -1420.000 -1400.000 -1380.000 -1360.000 -1340.000 -1320.000 -1300.000 -1280.000 -1260.000 -1240.000 -1220.000 -1200.000 -1180.000 -1160.000 -1140.000 -1120.000 -1100.000 -1080.000 -1060.000 -1040.000 -1020.000 -1000.000 -980.000 -960.000 -940.000 -920.000 -900.000 -880.000 -860.000 -840.000 -820.000 -800.000 -780.000 -760.000 -740.000 -720.000 -700.000 -680.000 -660.000 -640.000 -620.000 -600.000 -580.000 -560.000 -540.000 -520.000 -500.000 -480.000 -460.000 -440.000 -420.000 -400.000 -380.000 -360.000 -340.000 -320.000 -300.000 -280.000 -260.000 -240.000 -220.000 -200.000 -180.000 -160.000 -140.000 -120.000 -100.000 -80.000 -60.000 -40.000 -20.000 0.000
80 -2500.000 -2480.000 -2460.000 -2440.000 -2420.000 -2400.000 -2380.000 -2360.000 -2340.000 -2320.000 -2300.000 -2280.000 -2260.000 -2240.000 -2220.000 -2200.000 -2180.000 -2160.000 -2140.000 -2120.000 -2100.000 -2080.000 -2060.000 -2040.000 -2020.000 -2000.000 -1980.000 -1960.000 -1940.000 -1920.000 -1900.000 -1880.000 -1860.000 -1840.000 -1820.000 -1800.000 -1780.000 -1760.000 -1740.000 -1720.000 -1700.000 -1680.000 -1660.000 -1640.000 -1620.000 -1600.000 -1580.000 -1560.000 -1540.000 -1520.000 -1500.000 -1480.000 -1460.000 -1440.000 -1420.000 -1400.000 -1380.000 -1360.000 -1340.000 -1320.000 -1300.000 -1280.000 -1260.000 -1240.000 -1220.000 -1200.000 -1180.000 -1160.000 -1140.000 -1120.000 -1100.000 -1080.000 -1060.000 -1040.000 -1020.000 -1000.000 -980.000 -960.000 -940.000 -920.000 -900.000 -880.000 -860.000 -840.000 -820.000 -800.000 -780.000 -760.000 -740.000 -720.000 -700.000 -680.000 -660.000 -640.000 -620.000 -600.000 -580.000 -560.000 -540.000 -520.000 -500.000 -480.000 -460.000 -440.000 -420.000 -400.000 -380.000 -360.000 -340.000 -320.000 -300.000 -280.000 -260.000 -240.000 -220.000 -200.000 -180.000 -160.000 -140.000 -120.000 -100.000 -80.000 -60.000 -40.000 -20.000 0.000
100 -2500.000 -2480.000 -2460.000 -2440.000 -2420.000 -2400.000 -2380.000 -2360.000 -2340.000 -2320.000 -2300.000 -2280.000 -2260.000 -2240.000 -2220.000 -2200.000 -2180.000 -2160.000 -2140.000 -2120.000 -2100.000 -2080.000 -2060.000 -2040.000 -2020.000 -2000.000 -1980.000 -1960.000 -1940.000 -1920.000 -1900.000 -1880.000 -1860.000 -1840.000 -1820.000 -1800.000 -1780.000 -1760.000 -1740.000 -1720.000 -1700.000 -1680.000 -1660.000 -1640.000 -1620.000 -1600.000 -1580.000 -1560.000 -1540.000 -1520.000 -1500.000 -1480.000 -1460.000 -1440.000 -1420.000 -1400.000 -1380.000 -1360.000 -1340.000 -1320.000 -1300.000 -1280.000 -1260.000 -1240.000 -1220.000 -1200.000 -1180.000 -1160.000 -1140.000 -1120.000 -1100.000 -1080.000 -1060.000 -1040.000 -1020.000 -1000.000 -980.000 -960.000 -940.000 -920.000 -900.000 -880.000 -860.000 -840.000 -820.000 -800.000 -780.000 -760.000 -740.000 -720.000 -700.000 -680.000 -660.000 -640.000 -620.000 -600.000 -580.000 -560.000 -540.000 -520.000 -500.000 -480.000 -460.000 -440.000 -420.000 -400.000 -380.000 -360.000 -340.000 -320.000 -300.000 -280.000 -260.000 -240.000 -220.000 -200.000 -180.000 -160.000 -140.000 -120.000 -100.000 -80.000 -60.000 -40.000 -20.000 0.000
120 -2500.000 -2480.000 -2460.000 -2440.000 -2420.000 -2400.000 -2380.000 -2360.000 -2340.000 -2320.000 -2300.000 -2280.000 -2260.000 -2240.000 -2220.000 -2200.000 -2180.000 -2160.000 -2140.000 -2120.000 -2100.000 -2080.000 -2060.000 -2040.000 -2020.000 -2000.000 -1980.000 -1960.000 -1940.000 -1920.000 -1900.000 -1880.000 -1860.000 -1840.000 -1820.000 -1800.000 -1780.000 -1760.000 -1740.000 -1720.000 -1700.000 -1680.000 -1660.000 -1640.000 -1620.000 -1600.000 -1580.000 -1560.000 -1540.000 -1520.000 -1500.000 -1480.000 -1460.000 -1440.000 -1420.000 -1400.000 -1380.000 -1360.000 -1340.000 -1320.000 -1300.000 -1280.000 -1260.000 -1240.000 -1220.000 -1200.000 -1180.000 -1160.000 -1140.000 -1120.000 -1100.000 -1080.000 -1060.000 -1040.000 -1020.000 -1000.000 -980.000 -960.000 -940.000 -920.000 -900.000 -880.000 -860.000 -840.000 -820.000 -800.000 -780.000 -760.000 -740.000 -720.000 -700.000 -680.000 -660.000 -640.000 -620.000 -600.000 -580.000 -560.000 -540.000 -520.000 -500.000 -480.000 -460.000 -440.000 -420.000 -400.000 -380.000 -360.000 -340.000 -320.000 -300.000 -280.000 -260.000 -240.000 -220.000 -200.000 -180.000 -160.000 -140.000 -120.000 -100.000 -80.000 -60.000 -40.000 -20.000 0.000
140 -2500.000 -2480.000 -2460.000 -2440.000 -2420.000 -2400.000 -2380.000 -2360.000 -2340.000 -2320.000 -2300.000 -2280.000 -2260.000 -2240.000 -2220.000 -2200.000 -2180.000 -2160.000 -2140.000 -2120.000 -2100.000 -2080.000 -2060.000 -2040.000 -2020.000 -2000.000 -1980.000 -1960.000 -1940.000 -1920.000 -1900.000 -1880.000 -1860.000 -1840.000 -1820.000 -1800.000 -1780.000 -1760.000 -1740.000 -1720.000 -1700.000 -1680.000 -1660.000 -1640.000 -1620.000 -1600.000 -1580.000 -1560.000 -1540.000 -1520.000 -1500.000 -1480.000 -1460.000 -1440.000 -1420.000 -1400.000 -1380.000 -1360.000 -1340.000 -1320.000 -1300.000 -1280.000 -1260.000 -1240.000 -1220.000 -1200.000 -1180.000 -1160.000 -1140.000 -1120.000 -1100.000 -1080.000 -1060.000 -1040.000 -1020.000 -1000.000 -980.000 -960.000 -940.000 -920.000 -900.000 -880.000 -860.000 -840.000 -820.000 -800.000 -780.000 -760.000 -740.000 -720.000 -700.000 -680.000 -660.000 -640.000 -620.000 -600.000 -580.000 -560.000 -540.000 -520.000 -500.000 -480.000 -460.000 -440.000 -420.000 -400.000 -380.000 -360.000 -340.000 -320.000 -300.000 -280.000 -260.000 -240.000 -220.000 -200.000 -180.000 -160.000 -140.000 -120.000 -100.000 -80.000 -60.000 -40.000 -20.000 0.000
160 -2500.000 -2480.000 -2460.000 -2440.000 -2420.000 -2400.000 -2380.000 -2360.000 -2340.000 -2320.000 -2300.000 -2280.000 -2260.000 -2240.000 -2220.000 -2200.000 -2180.000 -2160.000 -2140.000 -2120.000 -2100.000 -2080.000 -2060.000 -2040.000 -2020.000 -2000.000 -1980.000 -1960.000 -1940.000 -1920.000 -1900.000 -1880.000 -1860.000 -1840.000 -1820.000 -1800.000 -1780.000 -1760.000 -1740.000 -1720.000 -1700.000 -1680.000 -1660.000 -1640.000 -1620.000 -1600.000 -1580.000 -1560.000 -1540.000 -1520.000 -1500.000 -1480.000 -1460.000 -1440.000 -1420.000 -1400.000 -1380.000 -1360.000 -1340.000 -1320.000 -1300.000 -1280.000 -1260.000 -1240.000 -1220.000 -1200.000 -1180.000 -1160.000 -1140.000 -1120.000 -1100.000 -1080.000 -1060.000 -1040.000 -1020.000 -1000.000 -980.000 -960.000 -940.000 -920.000 -900.000 -880.000 -860.000 -840.000 -820.000 -800.000 -780.000 -760.000 -740.000 -720.000 -700.000 -680.000 -660.000 -640.000 -620.000 -600.000 -580.000 -560.000 -540.000 -520.000 -500.000 -480.000 -460.000 -440.000 -420.000 -400.000 -380.000 -360.000 -340.000 -320.000 -300.000 -280.000 -260.000 -240.000 -220.000 -200.000 -180.000 -160.000 -140.000 -120.000 -100.000 -80.000 -60.000 -40.000 -20.000 0.000
180 -2500.000 -2480.000 -2460.000 -2440.000 -2420.000 -2400.000 -2380.000 -2360.000 -2340.000 -2320.000 -2300.000 -2280.000 -2260.000 -2240.000 -2220.000 -2200.000 -2180.000 -2160.000 -2140.000 -2120.000 -2100.000 -2080.000 -2060.000 -2040.000 -2020.000 -2000.000 -1980.000 -1960.000 -1940.000 -1920.000 -1900.000 -1880.000 -1860.000 -1840.000 -1820.000 -1800.000 -1780.000 -1760.000 -1740.000 -1720.000 -1700.000 -1680.000 -1660.000 -1640.000 -1620.000 -1600.000 -1580.000 -1560.000 -1540.000 -1520.000 -1500.000 -1480.000 -1460.000 -1440.000 -1420.000 -1400.000 -1380.000 -1360.000 -1340.000 -1320.000 -1300.000 -1280.000 -1260.000 -1240.000 -1220.000 -1200.000 -1180.000 -1160.000 -1140.000 -1120.000 -1100.000 -1080.000 -1060.000 -1040.000 -1020.000 -1000.000 -980.000 -960.000 -940.000 -920.000 -900.000 -880.000 -860.000 -840.000 -820.000 -800.000 -780.000 -760.000 -740.000 -720.000 -700.000 -680.000 -660.000 -640.000 -620.000 -600.000 -580.000 -560.000 -540.000 -520.000 -500.000 -480.000 -460.000 -440.000 -420.000 -400.000 -380.000 -360.000 -340.000 -320.000 -300.000 -280.000 -260.000 -240.000 -220.000 -200.000 -180.000 -160.000 -140.000 -120.000 -100.000 -80.000 -60.000 -40.000 -20.000 0.000
200 -2500.000 -2480.000 -2460.000 -2440.000 -2420.000 -2400.000 -2380.000 -2360.000 -2340.000 -2320.000 -2300.000 -2280.000 -2260.000 -2240.000 -2220.000 -2200.000 -2180.000 -2160.000 -2140.000 -2120.000 -2100.000 -2080.000 -2060.000 -2040.000 -2020.000 -2000.000 -1980.000 -1960.000 -1940.000 -1920.000 -1900.000 -1880.000 -1860.000 -1840.000 -1820.000 -1800.000 -1780.000 -1760.000 -1740.000 -1720.000 -1700.000 -1680.000 -1660.000 -1640.000 -1620.000 -1600.000 -1580.000 -1560.000 -1540.000 -1520.000 -1500.000 -1480.000 -1460.000 -1440.000 -1420.000 -1400.000 -1380.000 -1360.000 -1340.000 -1320.000 -1300.000 -1280.000 -1260.000 -1240.000 -1220.000 -1200.000 -1180.000 -1160.000 -1140.000 -1120.000 -1100.000 -1080.000 -1060.000 -1040.000 -1020.000 -1000.000 -980.000 -960.000 -940.000 -920.000 -900.000 -880.000 -860.000 -840.000 -820.000 -800.000 -780.000 -760.000 -740.000 -720.000 -700.000 -680.000 -660.000 -640.000 -620.000 -600.000 -580.000 -560.000 -540.000 -520.000 -500.000 -480.000 -460.000 -440.000 -420.000 -400.000 -380.000 -360.000 -340.000 -320.000 -300.000 -280.000 -260.000 -240.000 -220.000 -200.000 -180.000 -160.000 -140.000 -120.000 -100.000 -80.000 -60.000 -40.000 -20.000 0.000
220 -2500.000 -2480.000 -2460.000 -2440.000 -2420.000 -2400.000 -2380.000 -2360.000 -2340.000 -2320.000 -2300.000 -2280.000 -2260.000 -2240.000 -2220.000 -2200.000 -2180.000 -2160.000 -2140.000 -2120.000 -2100.000 -2080.000 -2060.000 -2040.000 -2020.000 -2000.000 -1980.000 -1960.000 -1940.000 -1920.000 -1900.000 -1880.000 -1860.000 -1840.000 -1820.000 -1800.000 -1780.000 -1760.000 -1740.000 -1720.000 -1700.000 -1680.000 -1660.000 -1640.000 -1620.000 -1600.000 -1580.000 -1560.000 -1540.000 -1520.000 -1500.000 -1480.000 -1460.000 -1440.000 -1420.000 -1400.000 -1380.000 -1360.000 -1340.000 -1320.000 -1300.000 -1280.000 -1260.000 -1240.000 -1220.000 -1200.000 -1180.000 -1160.000 -1140.000 -1120.000 -1100.000 -1080.000 -1060.000 -1040.000 -1020.000 -1000.000 -980.000 -960.000 -940.000 -920.000 -900.000 -880.000 -860.000 -840.000 -820.000 -800.000 -780.000 -760.000 -740.000 -720.000 -700.000 -680.000 -660.000 -640.000 -620.000 -600.000 -580.000 -560.000 -540.000 -520.000 -500.000 -480.000 -460.000 -440.000 -420.000 -400.000 -380.000 -360.000 -340.000 -320.000 -300.000 -280.000 -260.000 -240.000 -220.000 -200.000 -180.000 -160.000 -140.000 -120.000 -100.000 -80.000 -60.000 -40.000 -20.000 0.000
240 -2500.000 -2480.000 -2460.000 -2440.000 -2420.000 -2400.000 -2380.000 -2360.000 -2340.000 -2320.000 -2300.000 -2280.000 -2260.000 -2240.000 -2220.000 -2200.000 -2180.000 -2160.000 -2140.000 -2120.000 -2100.000 -2080.000 -2060.000 -2040.000 -2020.000 -2000.000 -1980.000 -1960.000 -1940.000 -1920.000 -1900.000 -1880.000 -1860.000 -1840.000 -1820.000 -1800.000 -1780.000 -1760.000 -1740.000 -1720.000 -1700.000 -1680.000 -1660.000 -1640.000 -1620.000 -1600.000 -1580.000 -1560.000 -1540.000 -1520.000 -1500.000 -1480.000 -1460.000 -1440.000 -1420.000 -1400.000 -1380.000 -1360.000 -1340.000 -1320.000 -1300.000 -1280.000 -1260.000 -1240.000 -1220.000 -1200.000 -1180.000 -1160.000 -1140.000 -1120.000 -1100.000 -1080.000 -1060.000 -1040.000 -1020.000 -1000.000 -980.000 -960.000 -940.000 -920.000 -900.000 -880.000 -860.000 -840.000 -820.000 -800.000 -780.000 -760.000 -740.000 -720.000 -700.000 -680.000 -660.000 -640.000 -620.000 -600.000 -580.000 -560.000 -540.000 -520.000 -500.000 -480.000 -460.000 -440.000 -420.000 -400.000 -380.000 -360.000 -340.000 -320.000 -300.000 -280.000 -260.000 -240.000 -220.000 -200.000 -180.000 -160.000 -140.000 -120.000 -100.000 -80.000 -60.000 -40.000 -20.000 0.000
260 -2500.000 -2480.000 -2460.000 -2440.000 -2420.000 -2400.000 -2380.000 -2360.000 -2340.000 -2320.000 -2300.000 -2280.000 -2260.000 -2240.000 -2220.000 -2200.000 -2180.000 -2160.000 -2140.000 -2120.000 -2100.000 -2080.000 -2060.000 -2040.000 -2020.000 -2000.000 -1980.000 -1960.000 -1940.000 -1920.000 -1900.000 -1880.000 -1860.000 -1840.000 -1820.000 -1800.000 -1780.000 -1760.000 -1740.000 -1720.000 -1700.000 -1680.000 -1660.000 -1640.000 -1620.000 -1600.000 -1580.000 -1560.000 -1540.000 -1520.000 -1500.000 -1480.000 -1460.000 -1440.000 -1420.000 -1400.000 -1380.000 -1360.000 -1340.000 -1320.000 -1300.000 -1280.000 -1260.000 -1240.000 -1220.000 -1200.000 -1180.000 -1160.000 -1140.000 -1120.000 -1100.000 -1080.000 -1060.000 -1040.000 -1020.000 -1000.000 -980.000 -960.000 -940.000 -920.000 -900.000 -880.000 -860.000 -840.000 -820.000 -800.000 -780.000 -760.000 -740.000 -720.000 -700.000 -680.000 -660.000 -640.000 -620.000 -600.000 -580.000 -560.000 -540.000 -520.000 -500.000 -480.000 -460.000 -440.000 -420.000 -400.000 -380.000 -360.000 -340.000 -320.000 -300.000 -280.000 -260.000 -240.000 -220.000 -200.000 -180.000 -160.000 -140.000 -120.000 -100.000 -80.000 -60.000 -40.000 -20.000 0.000
280 -2500.000 -2480.000 -2460.000 -2440.000 -2420.000 -2400.000 -2380.000 -2360.000 -2340.000 -2320.000 -2300.000 -2280.000 -2260.000 -2240.000 -2220.000 -2200.000 -2180.000 -2160.000 -2140.000 -2120.000 -2100.000 -2080.000 -2060.000 -2040.000 -2020.000 -2000.000 -1980.000 -1960.000 -1940.000 -1920.000 -1900.000 -1880.000 -1860.000 -1840.000 -1820.000 -1800.000 -1780.000 -1760.000 -1740.000 -1720.000 -1700.000 -1680.000 -1660.000 -1640.000 -1620.000 -1600.000 -1580.000 -1560.000 -1540.000 -1520.000 -1500.000 -1480.000 -1460.000 -1440.000 -1420.000 -1400.000 -1380.000 -1360.000 -1340.000 -1320.000 -1300.000 -1280.000 -1260.000 -1240.000 -1220.000 -1200.000 -1180.000 -1160.000 -1140.000 -1120.000 -1100.000 -1080.000 -1060.000 -1040.000 -1020.000 -1000.000 -980.000 -960.000 -940.000 -920.000 -900.000 -880.000 -860.000 -840.000 -820.000 -800.000 -780.000 -760.000 -740.000 -720.000 -700.000 -680.000 -660.000 -640.000 -620.000 -600.000 -580.000 -560.000 -540.000 -520.000 -500.000 -480.000 -460.000 -440.000 -420.000 -400.000 -380.000 -360.000 -340.000 -320.000 -300.000 -280.000 -260.000 -240.000 -220.000 -200.000 -180.000 -160.000 -140.000 -120.000 -100.000 -80.000 -60.000 -40.000 -20.000 0.000
300 -2500.000 -2480.000 -2460.000 -2440.000 -2420.000 -2400.000 -2380.000 -2360.000 -2340.000 -2320.000 -2300.000 -2280.000 -2260.000 -2240.000 -2220.000 -2200.000 -2180.000 -2160.000 -2140.000 -2120.000 -2100.000 -2080.000 -2060.000 -2040.000 -2020.000 -2000.000 -1980.000 -1960.000 -1940.000 -1920.000 -1900.000 -1880.000 -1860.000 -1840.000 -1820.000 -1800.000 -1780.000 -1760.000 -1740.000 -1720.000 -1700.000 -1680.000 -1660.000 -1640.000 -1620.000 -1600.000 -1580.000 -1560.000 -1540.000 -1520.000 -1500.000 -1480.000 -1460.000 -1440.000 -1420.000 -1400.000 -1380.000 -1360.000 -1340.000 -1320.000 -1300.000 -1280.000 -1260.000 -1240.000 -1220.000 -1200.000 -1180.000 -1160.000 -1140.000 -1120.000 -1100.000 -1080.000 -1060.000 -1040.000 -1020.000 -1000.000 -980.000 -960.000 -940.000 -920.000 -900.000 -880.000 -860.000 -840.000 -820.000 -800.000 -780.000 -760.000 -740.000 -720.000 -700.000 -680.000 -660.000 -640.000 -620.000 -600.000 -580.000 -560.000 -540.000 -520.000 -500.000 -480.000 -460.000 -440.000 -420.000 -400.000 -380.000 -360.000 -340.000 -320.000 -300.000 -280.000 -260.000 -240.000 -220.000 -200.000 -180.000 -160.000 -140.000 -120.000 -100.000 -80.000 -60.000 -40.000 -20.000 0.000
320 -2500.000 -2480.000 -2460.000 -2440.000 -2420.000 -2400.000 -2380.000 -2360.000 -2340.000 -2320.000 -2300.000 -2280.000 -2260.000 -2240.000 -2220.000 -2200.000 -2180.000 -2160.000 -2140.000 -2120.000 -2100.000 -2080.000 -2060.000 -2040.000 -2020.000 -2000.000 -1980.000 -1960.000 -1940.000 -1920.000 -1900.000 -1880.000 -1860.000 -1840.000 -1820.000 -1800.000 -1780.000 -1760.000 -1740.000 -1720.000 -1700.000 -1680.000 -1660.000 -1640.000 -1620.000 -1600.000 -1580.000 -1560.000 -1540.000 -1520.000 -1500.000 -1480.000 -1460.000 -1440.000 -1420.000 -1400.000 -1380.000 -1360.000 -1340.000 -1320.000 -1300.000 -1280.000 -1260.000 -1240.000 -1220.000 -1200.000 -1180.000 -1160.000 -1140.000 -1120.000 -1100.000 -1080.000 -1060.000 -1040.000 -1020.000 -1000.000 -980.000 -960.000 -940.000 -920.000 -900.000 -880.000 -860.000 -840.000 -820.000 -800.000 -780.000 -760.000 -740.000 -720.000 -700.000 -680.000 -660.000 -640.000 -620.000 -600.000 -580.000 -560.000 -540.000 -520.000 -500.000 -480.000 -460.000 -440.000 -420.000 -400.000 -380.000 -360.000 -340.000 -320.000 -300.000 -280.000 -260.000 -240.000 -220.000 -200.000 -180.000 -160.000 -140.000 -120.000 -100.000 -80.000 -60.000 -40.000 -20.000 0.000
340 -2500.000 -2480.000 -2460.000 -2440.000 -2420.000 -2400.000 -2380.000 -2360.000 -2340.000 -2320.000 -2300.000 -2280.000 -2260.000 -2240.000 -2220.000 -2200.000 -2180.000 -2160.000 -2140.000 -2120.000 -2100.000 -2080.000 -2060.000 -2040.000 -2020.000 -2000.000 -1980.000 -1960.000 -1940.000 -1920.000 -1900.000 -1880.000 -1860.000 -1840.000 -1820.000 -1800.000 -1780.000 -1760.000 -1740.000 -1720.000 -1700.000 -1680.000 -1660.000 -1640.000 -1620.000 -1600.000 -1580.000 -1560.000 -1540.000 -1520.000 -1500.000 -1480.000 -1460.000 -1440.000 -1420.000 -1400.000 -1380.000 -1360.000 -1340.000 -1320.000 -1300.000 -1280.000 -1260.000 -1240.000 -1220.000 -1200.000 -1180.000 -1160.000 -1140.000 -1120.000 -1100.000 -1080.000 -1060.000 -1040.000 -1020.000 -1000.000 -980.000 -960.000 -940.000 -920.000 -900.000 -880.000 -860.000 -840.000 -820.000 -800.000 -780.000 -760.000 -740.000 -720.000 -700.000 -680.000 -660.000 -640.000 -620.000 -600.000 -580.000 -560.000 -540.000 -520.000 -500.000 -480.000 -460.000 -440.000 -420.000 -400.000 -380.000 -360.000 -340.000 -320.000 -300.000 -280.000 -260.000 -240.000 -220.000 -200.000 -180.000 -160.000 -140.000 -120.000 -100.000 -80.000 -60.000 -40.000 -20.000 0.000
360 -2500.000 -2480.000 -2460.000 -2440.000 -2420.000 -2400.000 -2380.000 -2360.000 -2340.000 -2320.000 -2300.000 -2280.000 -2260.000 -2240.000 -2220.000 -2200.000 -2180.000 -2160.000 -2140.000 -2120.000 -2100.000 -2080.000 -2060.000 -2040.000 -2020.000 -2000.000 -1980.000 -1960.000 -1940.000 -1920.000 -1900.000 -1880.000 -1860.000 -1840.000 -1820.000 -1800.000 -1780.000 -1760.000 -1740.000 -1720.000 -1700.000 -1680.000 -1660.000 -1640.000 -1620.000 -1600.000 -1580.000 -1560.000 -1540.000 -1520.000 -1500.000 -1480.000 -1460.000 -1440.000 -1420.000 -1400.000 -1380.000 -1360.000 -1340.000 -1320.000 -1300.000 -1280.000 -1260.000 -1240.000 -1220.000 -1200.000 -1180.000 -1160.000 -1140.000 -1120.000 -1100.000 -1080.000 -1060.000 -1040.000 -1020.000 -1000.000 -980.000 -960.000 -940.000 -920.000 -900.000 -880.000 -860.000 -840.000 -820.000 -800.000 -780.000 -760.000 -740.000 -720.000 -700.000 -680.000 -660.000 -640.000 -620.000 -600.000 -580.000 -560.000 -540.000 -520.000 -500.000 -480.000 -460.000 -440.000 -420.000 -400.000 -380.000 -360.000 -340.000 -320.000 -300.000 -280.000 -260.000 -240.000 -220.000 -200.000 -180.000 -160.000 -140.000 -120.000 -100.000 -80.000 -60.000 -40.000 -20.000 0.000
380 -2500.000 -2480.000 -2460.000 -2440.000 -2420.000 -2400.000 -2380.000 -2360.000 -2340.000 -2320.000 -2300.000 -2280.000 -2260.000 -2240.000 -2220.000 -2200.000 -2180.000 -2160.000 -2140.000 -2120.000 -2100.000 -2080.000 -2060.000 -2040.000 -2020.000 -2000.000 -1980.000 -1960.000 -1940.000 -1920.000 -1900.000 -1880.000 -1860.000 -1840.000 -1820.000 -1800.000 -1780.000 -1760.000 -1740.000 -1720.000 -1700.000 -1680.000 -1660.000 -1640.000 -1620.000 -1600.000 -1580.000 -1560.000 -1540.000 -1520.000 -1500.000 -1480.000 -1460.000 -1440.000 -1420.000 -1400.000 -1380.000 -1360.000 -1340.000 -1320.000 -1300.000 -1280.000 -1260.000 -1240.000 -1220.000 -1200.000 -1180.000 -1160.000 -1140.000 -1120.000 -1100.000 -1080.000 -1060.000 -1040.000 -1020.000 -1000.000 -980.000 -960.000 -940.000 -920.000 -900.000 -880.000 -860.000 -840.000 -820.000 -800.000 -780.000 -760.000 -740.000 -720.000 -700.000 -680.000 -660.000 -640.000 -620.000 -600.000 -580.000 -560.000 -540.000 -520.000 -500.000 -480.000 -460.000 -440.000 -420.000 -400.000 -380.000 -360.000 -340.000 -320.000 -300.000 -280.000 -260.000 -240.000 -220.000 -200.000 -180.000 -160.000 -140.000 -120.000 -100.000 -80.000 -60.000 -40.000 -20.000 0.000
400 -2500.000 -2480.000 -2460.000 -2440.000 -2420.000 -2400.000 -2380.000 -2360.000 -2340.000 -2320.000 -2300.000 -2280.000 -2260.000 -2240.000 -2220.000 -2200.000 -2180.000 -2160.000 -2140.000 -2120.000 -2100.000 -2080.000 -2060.000 -2040.000 -2020.000 -2000.000 -1980.000 -1960.000 -1940.000 -1920.000 -1900.000 -1880.000 -1860.000 -1840.000 -1820.000 -1800.000 -1780.000 -1760.000 -1740.000 -1720.000 -1700.000 -1680.000 -1660.000 -1640.000 -1620.000 -1600.000 -1580.000 -1560.000 -1540.000 -1520.000 -1500.000 -1480.000 -1460.000 -1440.000 -1420.000 -1400.000 -1380.000 -1360.000 -1340.000 -1320.000 -1300.000 -1280.000 -1260.000 -1240.000 -1220.000 -1200.000 -1180.000 -1160.000 -1140.000 -1120.000 -1100.000 -1080.000 -1060.000 -1040.000 -1020.000 -1000.000 -980.000 -960.000 -940.000 -920.000 -900.000 -880.000 -860.000 -840.000 -820.000 -800.000 -780.000 -760.000 -740.000 -720.000 -700.000 -680.000 -660.000 -640.000 -620.000 -600.000 -580.000 -560.000 -540.000 -520.000 -500.000 -480.000 -460.000 -440.000 -420.000 -400.000 -380.000 -360.000 -340.000 -320.000 -300.000 -280.000 -260.000 -240.000 -220.000 -200.000 -180.000 -160.000 -140.000 -120.000 -100.000 -80.000 -60.000 -40.000 -20.000 0.000
420 -2500.000 -2480.000 -2460.000 -2440.000 -2420.000 -2400.000 -2380.000 -2360.000 -2340.000 -2320.000 -2300.000 -2280.000 -2260.000 -2240.000 -2220.000 -2200.000 -2180.000 -2160.000 -2140.000 -2120.000 -2100.000 -2080.000 -2060.000 -2040.000 -2020.000 -2000.000 -1980.000 -1960.000 -1940.000 -1920.000 -1900.000 -1880.000 -1860.000 -1840.000 -1820.000 -1800.000 -1780.000 -1760.000 -1740.000 -1720.000 -1700.000 -1680.000 -1660.000 -1640.000 -1620.000 -1600.000 -1580.000 -1560.000 -1540.000 -1520.000 -1500.000 -1480.000 -1460.000 -1440.000 -1420.000 -1400.000 -1380.000 -1360.000 -1340.000 -1320.000 -1300.000 -1280.000 -1260.000 -1240.000 -1220.000 -1200.000 -1180.000 -1160.000 -1140.000 -1120.000 -1100.000 -1080.000 -1060.000 -1040.000 -1020.000 -1000.000 -980.000 -960.000 -940.000 -920.000 -900.000 -880.000 -860.000 -840.000 -820.000 -800.000 -780.000 -760.000 -740.000 -720.000 -700.000 -680.000 -660.000 -640.000 -620.000 -600.000 -580.000 -560.000 -540.000 -520.000 -500.000 -480.000 -460.000 -440.000 -420.000 -400.000 -380.000 -360.000 -340.000 -320.000 -300.000 -280.000 -260.000 -240.000 -220.000 -200.000 -180.000 -160.000 -140.000 -120.000 -100.000 -80.000 -60.000 -40.000 -20.000 0.000
440 -2500.000 -2480.000 -2460.000 -2440.000 -2420.000 -2400.000 -2380.000 -2360.000 -2340.000 -2320.000 -2300.000 -2280.000 -2260.000 -2240.000 -2220.000 -2200.000 -2180.000 -2160.000 -2140.000 -2120.000 -2100.000 -2080.000 -2060.000 -2040.000 -2020.000 -2000.000 -1980.000 -1960.000 -1940.000 -1920.000 -1900.000 -1880.000 -1860.000 -1840.000 -1820.000 -1800.000 -1780.000 -1760.000 -1740.000 -1720.000 -1700.000 -1680.000 -1660.000 -1640.000 -1620.000 -1600.000 -1580.000 -1560.000 -1540.000 -1520.000 -1500.000 -1480.000 -1460.000 -1440.000 -1420.000 -1400.000 -1380.000 -1360.000 -1340.000 -1320.000 -1300.000 -1280.000 -1260.000 -1240.000 -1220.000 -1200.000 -1180.000 -1160.000 -1140.000 -1120.000 -1100.000 -1080.000 -1060.000 -1040.000 -1020.000 -1000.000 -980.000 -960.000 -940.000 -920.000 -900.000 -880.000 -860.000 -840.000 -820.000 -800.000 -780.000 -760.000 -740.000 -720.000 -700.000 -680.000 -660.000 -640.000 -620.000 -600.000 -580.000 -560.000 -540.000 -520.000 -500.000 -480.000 -460.000 -440.000 -420.000 -400.000 -380.000 -360.000 -340.000 -320.000 -300.000 -280.000 -260.000 -240.000 -220.000 -200.000 -180.000 -160.000 -140.000 -120.000 -100.000 -80.000 -60.000 -40.000 -20.000 0.000
460 -2500.000 -2480.000 -2460.000 -2440.000 -2420.000 -2400.000 -2380.000 -2360.000 -2340.000 -2320.000 -2300.000 -2280.000 -2260.000 -2240.000 -2220.000 -2200.000 -2180.000 -2160.000 -2140.000 -2120.000 -2100.000 -2080.000 -2060.000 -2040.000 -2020.000 -2000.000 -1980.000 -1960.000 -1940.000 -1920.000 -1900.000 -1880.000 -1860.000 -1840.000 -1820.000 -1800.000 -1780.000 -1760.000 -1740.000 -1720.000 -1700.000 -1680.000 -1660.000 -1640.000 -1620.000 -1600.000 -1580.000 -1560.000 -1540.000 -1520.000 -1500.000 -1480.000 -1460.000 -1440.000 -1420.000 -1400.000 -1380.000 -1360.000 -1340.000 -1320.000 -1300.000 -1280.000 -1260.000 -1240.000 -1220.000 -1200.000 -1180.000 -1160.000 -1140.000 -1120.000 -1100.000 -1080.000 -1060.000 -1040.000 -1020.000 -1000.000 -980.000 -960.000 -940.000 -920.000 -900.000 -880.000 -860.000 -840.000 -820.000 -800.000 -780.000 -760.000 -740.000 -720.000 -700.000 -680.000 -660.000 -640.000 -620.000 -600.000 -580.000 -560.000 -540.000 -520.000 -500.000 -480.000 -460.000 -440.000 -420.000 -400.000 -380.000 -360.000 -340.000 -320.000 -300.000 -280.000 -260.000 -240.000 -220.000 -200.000 -180.000 -160.000 -140.000 -120.000 -100.000 -80.000 -60.000 -40.000 -20.000 0.000
480 -2500.000 -2480.000 -2460.000 -2440.000 -2420.000 -2400.000 -2380.000 -2360.000 -2340.000 -2320.000 -2300.000 -2280.000 -2260.000 -2240.000 -2220.000 -2200.000 -2180.000 -2160.000 -2140.000 -2120.000 -2100.000 -2080.000 -2060.000 -2040.000 -2020.000 -2000.000 -1980.000 -1960.000 -1940.000 -1920.000 -1900.000 -1880.000 -1860.000 -1840.000 -1820.000 -1800.000 -1780.000 -1760.000 -1740.000 -1720.000 -1700.000 -1680.000 -1660.000 -1640.000 -1620.000 -1600.000 -1580.000 -1560.000 -1540.000 -1520.000 -1500.000 -1480.000 -1460.000 -1440.000 -1420.000 -1400.000 -1380.000 -1360.000 -1340.000 -1320.000 -1300.000 -1280.000 -1260.000 -1240.000 -1220.000 -1200.000 -1180.000 -1160.000 -1140.000 -1120.000 -1100.000 -1080.000 -1060.000 -1040.000 -1020.000 -1000.000 -980.000 -960.000 -940.000 -920.000 -900.000 -880.000 -860.000 -840.000 -820.000 -800.000 -780.000 -760.000 -740.000 -720.000 -700.000 -680.000 -660.000 -640.000 -620.000 -600.000 -580.000 -560.000 -540.000 -520.000 -500.000 -480.000 -460.000 -440.000 -420.000 -400.000 -380.000 -360.000 -340.000 -320.000 -300.000 -280.000 -260.000 -240.000 -220.000 -200.000 -180.000 -160.000 -140.000 -120.000 -100.000 -80.000 -60.000 -40.000 -20.000 0.000
500 -2500.000 -2480.000 -2460.000 -2440.000 -2420.000 -2400.000 -2380.000 -2360.000 -2340.000 -2320.000 -2300.000 -2280.000 -2260.000 -2240.000 -2220.000 -2200.000 -2180.000 -2160.000 -2140.000 -2120.000 -2100.000 -2080.000 -2060.000 -2040.000 -2020.000 -2000.000 -1980.000 -1960.000 -1940.000 -1920.000 -1900.000 -1880.000 -1860.000 -1840.000 -1820.000 -1800.000 -1780.000 -1760.000 -1740.000 -1720.000 -1700.000 -1680.000 -1660.000 -1640.000 -1620.000 -1600.000 -1580.000 -1560.000 -1540.000 -1520.000 -1500.000 -1480.000 -1460.000 -1440.000 -1420.000 -1400.000 -1380.000 -1360.000 -1340.000 -1320.000 -1300.000 -1280.000 -1260.000 -1240.000 -1220.000 -1200.000 -1180.000 -1160.000 -1140.000 -1120.000 -1100.000 -1080.000 -1060.000 -1040.000 -1020.000 -1000.000 -980.000 -960.000 -940.000 -920.000 -900.000 -880.000 -860.000 -840.000 -820.000 -800.000 -780.000 -760.000 -740.000 -720.000 -700.000 -680.000 -660.000 -640.000 -620.000 -600.000 -580.000 -560.000 -540.000 -520.000 -500.000 -480.000 -460.000 -440.000 -420.000 -400.000 -380.000 -360.000 -340.000 -320.000 -300.000 -280.000 -260.000 -240.000 -220.000 -200.000 -180.000 -160.000 -140.000 -120.000 -100.000 -80.000 -60.000 -40.000 -20.000 0.000
520 -2500.000 -2480.000 -2460.000 -2440.000 -2420.000 -2400.000 -2380.000 -2360.000 -2340.000 -2320.000 -2300.000 -2280.000 -2260.000 -2240.000 -2220.000 -2200.000 -2180.000 -2160.000 -2140.000 -2120.000 -2100.000 -2080.000 -2060.000 -2040.000 -2020.000 -2000.000 -1980.000 -1960.000 -1940.000 -1920.000 -1900.000 -1880.000 -1860.000 -1840.000 -1820.000 -1800.000 -1780.000 -1760.000 -1740.000 -1720.000 -1700.000 -1680.000 -1660.000 -1640.000 -1620.000 -1600.000 -1580.000 -1560.000 -1540.000 -1520.000 -1500.000 -1480.000 -1460.000 -1440.000 -1420.000 -1400.000 -1380.000 -1360.000 -1340.000 -1320.000 -1300.000 -1280.000 -1260.000 -1240.000 -1220.000 -1200.000 -1180.000 -1160.000 -1140.000 -1120.000 -1100.000 -1080.000 -1060.000 -1040.000 -1020.000 -1000.000 -980.000 -960.000 -940.000 -920.000 -900.000 -880.000 -860.000 -840.000 -820.000 -800.000 -780.000 -760.000 -740.000 -720.000 -700.000 -680.000 -660.000 -640.000 -620.000 -600.000 -580.000 -560.000 -540.000 -520.000 -500.000 -480.000 -460.000 -440.000 -420.000 -400.000 -380.000 -360.000 -340.000 -320.000 -300.000 -280.000 -260.000 -240.000 -220.000 -200.000 -180.000 -160.000 -140.000 -120.000 -100.000 -80.000 -60.000 -40.000 -20.000 0.000
540 -2500.000 -2480.000 -2460.000 -2440.000 -2420.000 -2400.000 -2380.000 -2360.000 -2340.000 -2320.000 -2300.000 -2280.000 -2260.000 -2240.000 -2220.000 -2200.000 -2180.000 -2160.000 -2140.000 -2120.000 -2100.000 -2080.000 -2060.000 -2040.000 -2020.000 -2000.000 -1980.000 -1960.000 -1940.000 -1920.000 -1900.000 -1880.000 -1860.000 -1840.000 -1820.000 -1800.000 -1780.000 -1760.000 -1740.000 -1720.000 -1700.000 -1680.000 -1660.000 -1640.000 -1620.000 -1600.000 -1580.000 -1560.000 -1540.000 -1520.000 -1500.000 -1480.000 -1460.000 -1440.000 -1420.000 -1400.000 -1380.000 -1360.000 -1340.000 -1320.000 -1300.000 -1280.000 -1260.000 -1240.000 -1220.000 -1200.000 -1180.000 -1160.000 -1140.000 -1120.000 -1100.000 -1080.000 -1060.000 -1040.000 -1020.000 -1000.000 -980.000 -960.000 -940.000 -920.000 -900.000 -880.000 -860.000 -840.000 -820.000 -800.000 -780.000 -760.000 -740.000 -720.000 -700.000 -680.000 -660.000 -640.000 -620.000 -600.000 -580.000 -560.000 -540.000 -520.000 -500.000 -480.000 -460.000 -440.000 -420.000 -400.000 -380.000 -360.000 -340.000 -320.000 -300.000 -280.000 -260.000 -240.000 -220.000 -200.000 -180.000 -160.000 -140.000 -120.000 -100.000 -80.000 -60.000 -40.000 -20.000 0.000
560 -2500.000 -2480.000 -2460.000 -2440.000 -2420.000 -2400.000 -2380.000 -2360.000 -2340.000 -2320.000 -2300.000 -2280.000 -2260.000 -2240.000 -2220.000 -2200.000 -2180.000 -2160.000 -2140.000 -2120.000 -2100.000 -2080.000 -2060.000 -2040.000 -2020.000 -2000.000 -1980.000 -1960.000 -1940.000 -1920.000 -1900.000 -1880.000 -1860.000 -1840.000 -1820.000 -1800.000 -1780.000 -1760.000 -1740.000 -1720.000 -1700.000 -1680.000 -1660.000 -1640.000 -1620.000 -1600.000 -1580.000 -1560.000 -1540.000 -1520.000 -1500.000 -1480.000 -1460.000 -1440.000 -1420.000 -1400.000 -1380.000 -1360.000 -1340.000 -1320.000 -1300.000 -1280.000 -1260.000 -1240.000 -1220.000 -1200.000 -1180.000 -1160.000 -1140.000 -1120.000 -1100.000 -1080.000 -1060.000 -1040.000 -1020.000 -1000.000 -980.000 -960.000 -940.000 -920.000 -900.000 -880.000 -860.000 -840.000 -820.000 -800.000 -780.000 -760.000 -740.000 -720.000 -700.000 -680.000 -660.000 -640.000 -620.000 -600.000 -580.000 -560.000 -540.000 -520.000 -500.000 -480.000 -460.000 -440.000 -420.000 -400.000 -380.000 -360.000 -340.000 -320.000 -300.000 -280.000 -260.000 -240.000 -220.000 -200.000 -180.000 -160.000 -140.000 -120.000 -100.000 -80.000 -60.000 -40.000 -20.000 0.000
580 -2500.000 -2480.000 -2460.000 -2440.000 -2420.000 -2400.000 -2380.000 -2360.000 -2340.000 -2320.000 -2300.000 -2280.000 -2260.000 -2240.000 -2220.000 -2200.000 -2180.000 -2160.000 -2140.000 -2120.000 -2100.000 -2080.000 -2060.000 -2040.000 -2020.000 -2000.000 -1980.000 -1960.000 -1940.000 -1920.000 -1900.000 -1880.000 -1860.000 -1840.000 -1820.000 -1800.000 -1780.000 -1760.000 -1740.000 -1720.000 -1700.000 -1680.000 -1660.000 -1640.000 -1620.000 -1600.000 -1580.000 -1560.000 -1540.000 -1520.000 -1500.000 -1480.000 -1460.000 -1440.000 -1420.000 -1400.000 -1380.000 -1360.000 -1340.000 -1320.000 -1300.000 -1280.000 -1260.000 -1240.000 -1220.000 -1200.000 -1180.000 -1160.000 -1140.000 -1120.000 -1100.000 -1080.000 -1060.000 -1040.000 -1020.000 -1000.000 -980.000 -960.000 -940.000 -920.000 -900.000 -880.000 -860.000 -840.000 -820.000 -800.000 -780.000 -760.000 -740.000 -720.000 -700.000 -680.000 -660.000 -640.000 -620.000 -600.000 -580.000 -560.000 -540.000 -520.000 -500.000 -480.000 -460.000 -440.000 -420.000 -400.000 -380.000 -360.000 -340.000 -320.000 -300.000 -280.000 -260.000 -240.000 -220.000 -200.000 -180.000 -160.000 -140.000 -120.000 -100.000 -80.000 -60.000 -40.000 -20.000 0.000
600 -2500.000 -2480.000 -2460.000 -2440.000 -2420.000 -2400.000 -2380.000 -2360.000 -2340.000 -2320.000 -2300.000 -2280.000 -2260.000 -2240.000 -2220.000 -2200.000 -2180.000 -2160.000 -2140.000 -2120.000 -2100.000 -2080.000 -2060.000 -2040.000 -2020.000 -2000.000 -1980.000 -1960.000 -1940.000 -1920.000 -1900.000 -1880.000 -1860.000 -1840.000 -1820.000 -1800.000 -1780.000 -1760.000 -1740.000 -1720.000 -1700.000 -1680.000 -1660.000 -1640.000 -1620.000 -1600.000 -1580.000 -1560.000 -1540.000 -1520.000 -1500.000 -1480.000 -1460.000 -1440.000 -1420.000 -1400.000 -1380.000 -1360.000 -1340.000 -1320.000 -1300.000 -1280.000 -1260.000 -1240.000 -1220.000 -1200.000 -1180.000 -1160.000 -1140.000 -1120.000 -1100.000 -1080.000 -1060.000 -1040.000 -1020.000 -1000.000 -980.000 -960.000 -940.000 -920.000 -900.000 -880.000 -860.000 -840.000 -820.000 -800.000 -780.000 -760.000 -740.000 -720.000 -700.000 -680.000 -660.000 -640.000 -620.000 -600.000 -580.000 -560.000 -540.000 -520.000 -500.000 -480.000 -460.000 -440.000 -420.000 -400.000 -380.000 -360.000 -340.000 -320.000 -300.000 -280.000 -260.000 -240.000 -220.000 -200.000 -180.000 -160.000 -140.000 -120.000 -100.000 -80.000 -60.000 -40.000 -20.000 0.000
620 -2500.000 -2480.000 -2460.000 -2440.000 -2420.000 -2400.000 -2380.000 -2360.000 -2340.000 -2320.000 -2300.000 -2280.000 -2260.000 -2240.000 -2220.000 -2200.000 -2180.000 -2160.000 -2140.000 -2120.000 -2100.000 -2080.000 -2060.000 -2040.000 -2020.000 -2000.000 -1980.000 -1960.000 -1940.000 -1920.000 -1900.000 -1880.000 -1860.000 -1840.000 -1820.000 -1800.000 -1780.000 -1760.000 -1740.000 -1720.000 -1700.000 -1680.000 -1660.000 -1640.000 -1620.000 -1600.000 -1580.000 -1560.000 -1540.000 -1520.000 -1500.000 -1480.000 -1460.000 -1440.000 -1420.000 -1400.000 -1380.000 -1360.000 -1340.000 -1320.000 -1300.000 -1280.000 -1260.000 -1240.000 -1220.000 -1200.000 -1180.000 -1160.000 -1140.000 -1120.000 -1100.000 -1080.000 -1060.000 -1040.000 -1020.000 -1000.000 -980.000 -960.000 -940.000 -920.000 -900.000 -880.000 -860.000 -840.000 -820.000 -800.000 -780.000 -760.000 -740.000 -720.000 -700.000 -680.000 -660.000 -640.000 -620.000 -600.000 -580.000 -560.000 -540.000 -520.000 -500.000 -480.000 -460.000 -440.000 -420.000 -400.000 -380.000 -360.000 -340.000 -320.000 -300.000 -280.000 -260.000 -240.000 -220.000 -200.000 -180.000 -160.000 -140.000 -120.000 -100.000 -80.000 -60.000 -40.000 -20.000 0.000
640 -2500.000 -2480.000 -2460.000 -2440.000 -2420.000 -2400.000 -2380.000 -2360.000 -2340.000 -2320.000 -2300.000 -2280.000 -2260.000 -2240.000 -2220.000 -2200.000 -2180.000 -2160.000 -2140.000 -2120.000 -2100.000 -2080.000 -2060.000 -2040.000 -2020.000 -2000.000 -1980.000 -1960.000 -1940.000 -1920.000 -1900.000 -1880.000 -1860.000 -1840.000 -1820.000 -1800.000 -1780.000 -1760.000 -1740.000 -1720.000 -1700.000 -1680.000 -1660.000 -1640.000 -1620.000 -1600.000 -1580.000 -1560.000 -1540.000 -1520.000 -1500.000 -1480.000 -1460.000 -1440.000 -1420.000 -1400.000 -1380.000 -1360.000 -1340.000 -1320.000 -1300.000 -1280.000 -1260.000 -1240.000 -1220.000 -1200.000 -1180.000 -1160.000 -1140.000 -1120.000 -1100.000 -1080.000 -1060.000 -1040.000 -1020.000 -1000.000 -980.000 -960.000 -940.000 -920.000 -900.000 -880.000 -860.000 -840.000 -820.000 -800.000 -780.000 -760.000 -740.000 -720.000 -700.000 -680.000 -660.000 -640.000 -620.000 -600.000 -580.000 -560.000 -540.000 -520.000 -500.000 -480.000 -460.000 -440.000 -420.000 -400.000 -380.000 -360.000 -340.000 -320.000 -300.000 -280.000 -260.000 -240.000 -220.000 -200.000 -180.000 -160.000 -140.000 -120.000 -100.000 -80.000 -60.000 -40.000 -20.000 0.000
660 -2500.000 -2480.000 -2460.000 -2440.000 -2420.000 -2400.000 -2380.000 -2360.000 -2340.000 -2320.000 -2300.000 -2280.000 -2260.000 -2240.000 -2220.000 -2200.000 -2180.000 -2160.000 -2140.000 -2120.000 -2100.000 -2080.000 -2060.000 -2040.000 -2020.000 -2000.000 -1980.000 -1960.000 -1940.000 -1920.000 -1900.000 -1880.000 -1860.000 -1840.000 -1820.000 -1800.000 -1780.000 -1760.000 -1740.000 -1720.000 -1700.000 -1680.000 -1660.000 -1640.000 -1620.000 -1600.000 -1580.000 -1560.000 -1540.000 -1520.000 -1500.000 -1480.000 -1460.000 -1440.000 -1420.000 -1400.000 -1380.000 -1360.000 -1340.000 -1320.000 -1300.000 -1280.000 -1260.000 -1240.000 -1220.000 -1200.000 -1180.000 -1160.000 -1140.000 -1120.000 -1100.000 -1080.000 -1060.000 -1040.000 -1020.000 -1000.000 -980.000 -960.000 -940.000 -920.000 -900.000 -880.000 -860.000 -840.000 -820.000 -800.000 -780.000 -760.000 -740.000 -720.000 -700.000 -680.000 -660.000 -640.000 -620.000 -600.000 -580.000 -560.000 -540.000 -520.000 -500.000 -480.000 -460.000 -440.000 -420.000 -400.000 -380.000 -360.000 -340.000 -320.000 -300.000 -280.000 -260.000 -240.000 -220.000 -200.000 -180.000 -160.000 -140.000 -120.000 -100.000 -80.000 -60.000 -40.000 -20.000 0.000
680 -2500.000 -2480.000 -2460.000 -2440.000 -2420.000 -2400.000 -2380.000 -2360.000 -2340.000 -2320.000 -2300.000 -2280.000 -2260.000 -2240.000 -2220.000 -2200.000 -2180.000 -2160.000 -2140.000 -2120.000 -2100.000 -2080.000 -2060.000 -2040.000 -2020.000 -2000.000 -1980.000 -1960.000 -1940.000 -1920.000 -1900.000 -1880.000 -1860.000 -1840.000 -1820.000 -1800.000 -1780.000 -1760.000 -1740.000 -1720.000 -1700.000 -1680.000 -1660.000 -1640.000 -1620.000 -1600.000 -1580.000 -1560.000 -1540.000 -1520.000 -1500.000 -1480.000 -1460.000 -1440.000 -1420.000 -1400.000 -1380.000 -1360.000 -1340.000 -1320.000 -1300.000 -1280.000 -1260.000 -1240.000 -1220.000 -1200.000 -1180.000 -1160.000 -1140.000 -1120.000 -1100.000 -1080.000 -1060.000 -1040.000 -1020.000 -1000.000 -980.000 -960.000 -940.000 -920.000 -900.000 -880.000 -860.000 -840.000 -820.000 -800.000 -780.000 -760.000 -740.000 -720.000 -700.000 -680.000 -660.000 -640.000 -620.000 -600.000 -580.000 -560.000 -540.000 -520.000 -500.000 -480.000 -460.000 -440.000 -420.000 -400.000 -380.000 -360.000 -340.000 -320.000 -300.000 -280.000 -260.000 -240.000 -220.000 -200.000 -180.000 -160.000 -140.000 -120.000 -100.000 -80.000 -60.000 -40.000 -20.000 0.000
700 -2500.000 -2480.000 -2460.000 -2440.000 -2420.000 -2400.000 -2380.000 -2360.000 -2340.000 -2320.000 -2300.000 -2280.000 -2260.000 -2240.000 -2220.000 -2200.000 -2180.000 -2160.000 -2140.000 -2120.000 -2100.000 -2080.000 -2060.000 -2040.000 -2020.000 -2000.000 -1980.000 -1960.000 -1940.000 -1920.000 -1900.000 -1880.000 -1860.000 -1840.000 -1820.000 -1800.000 -1780.000 -1760.000 -1740.000 -1720.000 -1700.000 -1680.000 -1660.000 -1640.000 -1620.000 -1600.000 -1580.000 -1560.000 -1540.000 -1520.000 -1500.000 -1480.000 -1460.000 -1440.000 -1420.000 -1400.000 -1380.000 -1360.000 -1340.000 -1320.000 -1300.000 -1280.000 -1260.000 -1240.000 -1220.000 -1200.000 -1180.000 -1160.000 -1140.000 -1120.000 -1100.000 -1080.000 -1060.000 -1040.000 -1020.000 -1000.000 -980.000 -960.000 -940.000 -920.000 -900.000 -880.000 -860.000 -840.000 -820.000 -800.000 -780.000 -760.000 -740.000 -720.000 -700.000 -680.000 -660.000 -640.000 -620.000 -600.000 -580.000 -560.000 -540.000 -520.000 -500.000 -480.000 -460.000 -440.000 -420.000 -400.000 -380.000 -360.000 -340.000 -320.000 -300.000 -280.000 -260.000 -240.000 -220.000 -200.000 -180.000 -160.000 -140.000 -120.000 -100.000 -80.000 -60.000 -40.000 -20.000 0.000
720 -2500.000 -2480.000 -2460.000 -2440.000 -2420.000 -2400.000 -2380.000 -2360.000 -2340.000 -2320.000 -2300.000 -2280.000 -2260.000 -2240.000 -2220.000 -2200.000 -2180.000 -2160.000 -2140.000 -2120.000 -2100.000 -2080.000 -2060.000 -2040.000 -2020.000 -2000.000 -1980.000 -1960.000 -1940.000 -1920.000 -1900.000 -1880.000 -1860.000 -1840.000 -1820.000 -1800.000 -1780.000 -1760.000 -1740.000 -1720.000 -1700.000 -1680.000 -1660.000 -1640.000 -1620.000 -1600.000 -1580.000 -1560.000 -1540.000 -1520.000 -1500.000 -1480.000 -1460.000 -1440.000 -1420.000 -1400.000 -1380.000 -1360.000 -1340.000 -1320.000 -1300.000 -1280.000 -1260.000 -1240.000 -1220.000 -1200.000 -1180.000 -1160.000 -1140.000 -1120.000 -1100.000 -1080.000 -1060.000 -1040.000 -1020.000 -1000.000 -980.000 -960.000 -940.000 -920.000 -900.000 -880.000 -860.000 -840.000 -820.000 -800.000 -780.000 -760.000 -740.000 -720.000 -700.000 -680.000 -660.000 -640.000 -620.000 -600.000 -580.000 -560.000 -540.000 -520.000 -500.000 -480.000 -460.000 -440.000 -420.000 -400.000 -380.000 -360.000 -340.000 -320.000 -300.000 -280.000 -260.000 -240.000 -220.000 -200.000 -180.000 -160.000 -140.000 -120.000 -100.000 -80.000 -60.000 -40.000 -20.000 0.000
740 -2500.000 -2480.000 -2460.000 -2440.000 -2420.000 -2400.000 -2380.000 -2360.000 -2340.000 -2320.000 -2300.000 -2280.000 -2260.000 -2240.000 -2220.000 -2200.000 -2180.000 -2160.000 -2140.000 -2120.000 -2100.000 -2080.000 -2060.000 -2040.000 -2020.000 -2000.000 -1980.000 -1960.000 -1940.000 -1920.000 -1900.000 -1880.000 -1860.000 -1840.000 -1820.000 -1800.000 -1780.000 -1760.000 -1740.000 -1720.000 -1700.000 -1680.000 -1660.000 -1640.000 -1620.000 -1600.000 -1580.000 -1560.000 -1540.000 -1520.000 -1500.000 -1480.000 -1460.000 -1440.000 -1420.000 -1400.000 -1380.000 -1360.000 -1340.000 -1320.000 -1300.000 -1280.000 -1260.000 -1240.000 -1220.000 -1200.000 -1180.000 -1160.000 -1140.000 -1120.000 -1100.000 -1080.000 -1060.000 -1040.000 -1020.000 -1000.000 -980.000 -960.000 -940.000 -920.000 -900.000 -880.000 -860.000 -840.000 -820.000 -800.000 -780.000 -760.000 -740.000 -720.000 -700.000 -680.000 -660.000 -640.000 -620.000 -600.000 -580.000 -560.000 -540.000 -520.000 -500.000 -480.000 -460.000 -440.000 -420.000 -400.000 -380.000 -360.000 -340.000 -320.000 -300.000 -280.000 -260.000 -240.000 -220.000 -200.000 -180.000 -160.000 -140.000 -120.000 -100.000 -80.000 -60.000 -40.000 -20.000 0.000
760 -2500.000 -2480.000 -2460.000 -2440.000 -2420.000 -2400.000 -2380.000 -2360.000 -2340.000 -2320.000 -2300.000 -2280.000 -2260.000 -2240.000 -2220.000 -2200.000 -2180.000 -2160.000 -2140.000 -2120.000 -2100.000 -2080.000 -2060.000 -2040.000 -2020.000 -2000.000 -1980.000 -1960.000 -1940.000 -1920.000 -1900.000 -1880.000 -1860.000 -1840.000 -1820.000 -1800.000 -1780.000 -1760.000 -1740.000 -1720.000 -1700.000 -1680.000 -1660.000 -1640.000 -1620.000 -1600.000 -1580.000 -1560.000 -1540.000 -1520.000 -1500.000 -1480.000 -1460.000 -1440.000 -1420.000 -1400.000 -1380.000 -1360.000 -1340.000 -1320.000 -1300.000 -1280.000 -1260.000 -1240.000 -1220.000 -1200.000 -1180.000 -1160.000 -1140.000 -1120.000 -1100.000 -1080.000 -1060.000 -1040.000 -1020.000 -1000.000 -980.000 -960.000 -940.000 -920.000 -900.000 -880.000 -860.000 -840.000 -820.000 -800.000 -780.000 -760.000 -740.000 -720.000 -700.000 -680.000 -660.000 -640.000 -620.000 -600.000 -580.000 -560.000 -540.000 -520.000 -500.000 -480.000 -460.000 -440.000 -420.000 -400.000 -380.000 -360.000 -340.000 -320.000 -300.000 -280.000 -260.000 -240.000 -220.000 -200.000 -180.000 -160.000 -140.000 -120.000 -100.000 -80.000 -60.000 -40.000 -20.000 0.000
780 -2500.000 -2480.000 -2460.000 -2440.000 -2420.000 -2400.000 -2380.000 -2360.000 -2340.000 -2320.000 -2300.000 -2280.000 -2260.000 -2240.000 -2220.000 -2200.000 -2180.000 -2160.000 -2140.000 -2120.000 -2100.000 -2080.000 -2060.000 -2040.000 -2020.000 -2000.000 -1980.000 -1960.000 -1940.000 -1920.000 -1900.000 -1880.000 -1860.000 -1840.000 -1820.000 -1800.000 -1780.000 -1760.000 -1740.000 -1720.000 -1700.000 -1680.000 -1660.000 -1640.000 -1620.000 -1600.000 -1580.000 -1560.000 -1540.000 -1520.000 -1500.000 -1480.000 -1460.000 -1440.000 -1420.000 -1400.000 -1380.000 -1360.000 -1340.000 -1320.000 -1300.000 -1280.000 -1260.000 -1240.000 -1220.000 -1200.000 -1180.000 -1160.000 -1140.000 -1120.000 -1100.000 -1080.000 -1060.000 -1040.000 -1020.000 -1000.000 -980.000 -960.000 -940.000 -920.000 -900.000 -880.000 -860.000 -840.000 -820.000 -800.000 -780.000 -760.000 -740.000 -720.000 -700.000 -680.000 -660.000 -640.000 -620.000 -600.000 -580.000 -560.000 -540.000 -520.000 -500.000 -480.000 -460.000 -440.000 -420.000 -400.000 -380.000 -360.000 -340.000 -320.000 -300.000 -280.000 -260.000 -240.000 -220.000 -200.000 -180.000 -160.000 -140.000 -120.000 -100.000 -80.000 -60.000 -40.000 -20.000 0.000
800 -2500.000 -2480.000 -2460.000 -2440.000 -2420.000 -2400.000 -2380.000 -2360.000 -2340.000 -2320.000 -2300.000 -2280.000 -2260.000 -2240.000 -2220.000 -2200.000 -2180.000 -2160.000 -2140.000 -2120.000 -2100.000 -2080.000 -2060.000 -2040.000 -2020.000 -2000.000 -1980.000 -1960.000 -1940.000 -1920.000 -1900.000 -1880.000 -1860.000 -1840.000 -1820.000 -1800.000 -1780.000 -1760.000 -1740.000 -1720.000 -1700.000 -1680.000 -1660.000 -1640.000 -1620.000 -1600.000 -1580.000 -1560.000 -1540.000 -1520.000 -1500.000 -1480.000 -1460.000 -1440.000 -1420.000 -1400.000 -1380.000 -1360.000 -1340.000 -1320.000 -1300.000 -1280.000 -1260.000 -1240.000 -1220.000 -1200.000 -1180.000 -1160.000 -1140.000 -1120.000 -1100.000 -1080.000 -1060.000 -1040.000 -1020.000 -1000.000 -980.000 -960.000 -940.000 -920.000 -900.000 -880.000 -860.000 -840.000 -820.000 -800.000 -780.000 -760.000 -740.000 -720.000 -700.000 -680.000 -660.000 -640.000 -620.000 -600.000 -580.000 -560.000 -540.000 -520.000 -500.000 -480.000 -460.000 -440.000 -420.000 -400.000 -380.000 -360.000 -340.000 -320.000 -300.000 -280.000 -260.000 -240.000 -220.000 -200.000 -180.000 -160.000 -140.000 -120.000 -100.000 -80.000 -60.000 -40.000 -20.000 0.000
820 -2500.000 -2480.000 -2460.000 -2440.000 -2420.000 -2400.000 -2380.000 -2360.000 -2340.000 -2320.000 -2300.000 -2280.000 -2260.000 -2240.000 -2220.000 -2200.000 -2180.000 -2160.000 -2140.000 -2120.000 -2100.000 -2080.000 -2060.000 -2040.000 -2020.000 -2000.000 -1980.000 -1960.000 -1940.000 -1920.000 -1900.000 -1880.000 -1860.000 -1840.000 -1820.000 -1800.000 -1780.000 -1760.000 -1740.000 -1720.000 -1700.000 -1680.000 -1660.000 -1640.000 -1620.000 -1600.000 -1580.000 -1560.000 -1540.000 -1520.000 -1500.000 -1480.000 -1460.000 -1440.000 -1420.000 -1400.000 -1380.000 -1360.000 -1340.000 -1320.000 -1300.000 -1280.000 -1260.000 -1240.000 -1220.000 -1200.000 -1180.000 -1160.000 -1140.000 -1120.000 -1100.000 -1080.000 -1060.000 -1040.000 -1020.000 -1000.000 -980.000 -960.000 -940.000 -920.000 -900.000 -880.000 -860.000 -840.000 -820.000 -800.000 -780.000 -760.000 -740.000 -720.000 -700.000 -680.000 -660.000 -640.000 -620.000 -600.000 -580.000 -560.000 -540.000 -520.000 -500.000 -480.000 -460.000 -440.000 -420.000 -400.000 -380.000 -360.000 -340.000 -320.000 -300.000 -280.000 -260.000 -240.000 -220.000 -200.000 -180.000 -160.000 -140.000 -120.000 -100.000 -80.000 -60.000 -40.000 -20.000 0.000
840 -2500.000 -2480.000 -2460.000 -2440.000 -2420.000 -2400.000 -2380.000 -2360.000 -2340.000 -2320.000 -2300.000 -2280.000 -2260.000 -2240.000 -2220.000 -2200.000 -2180.000 -2160.000 -2140.000 -2120.000 -2100.000 -2080.000 -2060.000 -2040.000 -2020.000 -2000.000 -1980.000 -1960.000 -1940.000 -1920.000 -1900.000 -1880.000 -1860.000 -1840.000 -1820.000 -1800.000 -1780.000 -1760.000 -1740.000 -1720.000 -1700.000 -1680.000 -1660.000 -1640.000 -1620.000 -1600.000 -1580.000 -1560.000 -1540.000 -1520.000 -1500.000 -1480.000 -1460.000 -1440.000 -1420.000 -1400.000 -1380.000 -1360.000 -1340.000 -1320.000 -1300.000 -1280.000 -1260.000 -1240.000 -1220.000 -1200.000 -1180.000 -1160.000 -1140.000 -1120.000 -1100.000 -1080.000 -1060.000 -1040.000 -1020.000 -1000.000 -980.000 -960.000 -940.000 -920.000 -900.000 -880.000 -860.000 -840.000 -820.000 -800.000 -780.000 -760.000 -740.000 -720.000 -700.000 -680.000 -660.000 -640.000 -620.000 -600.000 -580.000 -560.000 -540.000 -520.000 -500.000 -480.000 -460.000 -440.000 -420.000 -400.000 -380.000 -360.000 -340.000 -320.000 -300.000 -280.000 -260.000 -240.000 -220.000 -200.000 -180.000 -160.000 -140.000 -120.000 -100.000 -80.000 -60.000 -40.000 -20.000 0.000
860 -2500.000 -2480.000 -2460.000 -2440.000 -2420.000 -2400.000 -2380.000 -2360.000 -2340.000 -2320.000 -2300.000 -2280.000 -2260.000 -2240.000 -2220.000 -2200.000 -2180.000 -2160.000 -2140.000 -2120.000 -2100.000 -2080.000 -2060.000 -2040.000 -2020.000 -2000.000 -1980.000 -1960.000 -1940.000 -1920.000 -1900.000 -1880.000 -1860.000 -1840.000 -1820.000 -1800.000 -1780.000 -1760.000 -1740.000 -1720.000 -1700.000 -1680.000 -1660.000 -1640.000 -1620.000 -1600.000 -1580.000 -1560.000 -1540.000 -1520.000 -1500.000 -1480.000 -1460.000 -1440.000 -1420.000 -1400.000 -1380.000 -1360.000 -1340.000 -1320.000 -1300.000 -1280.000 -1260.000 -1240.000 -1220.000 -1200.000 -1180.000 -1160.000 -1140.000 -1120.000 -1100.000 -1080.000 -1060.000 -1040.000 -1020.000 -1000.000 -980.000 -960.000 -940.000 -920.000 -900.000 -880.000 -860.000 -840.000 -820.000 -800.000 -780.000 -760.000 -740.000 -720.000 -700.000 -680.000 -660.000 -640.000 -620.000 -600.000 -580.000 -560.000 -540.000 -520.000 -500.000 -480.000 -460.000 -440.000 -420.000 -400.000 -380.000 -360.000 -340.000 -320.000 -300.000 -280.000 -260.000 -240.000 -220.000 -200.000 -180.000 -160.000 -140.000 -120.000 -100.000 -80.000 -60.000 -40.000 -20.000 0.000
880 -2500.000 -2480.000 -2460.000 -2440.000 -2420.000 -2400.000 -2380.000 -2360.000 -2340.000 -2320.000 -2300.000 -2280.000 -2260.000 -2240.000 -2220.000 -2200.000 -2180.000 -2160.000 -2140.000 -2120.000 -2100.000 -2080.000 -2060.000 -2040.000 -2020.000 -2000.000 -1980.000 -1960.000 -1940.000 -1920.000 -1900.000 -1880.000 -1860.000 -1840.000 -1820.000 -1800.000 -1780.000 -1760.000 -1740.000 -1720.000 -1700.000 -1680.000 -1660.000 -1640.000 -1620.000 -1600.000 -1580.000 -1560.000 -1540.000 -1520.000 -1500.000 -1480.000 -1460.000 -1440.000 -1420.000 -1400.000 -1380.000 -1360.000 -1340.000 -1320.000 -1300.000 -1280.000 -1260.000 -1240.000 -1220.000 -1200.000 -1180.000 -1160.000 -1140.000 -1120.000 -1100.000 -1080.000 -1060.000 -1040.000 -1020.000 -1000.000 -980.000 -960.000 -940.000 -920.000 -900.000 -880.000 -860.000 -840.000 -820.000 -800.000 -780.000 -760.000 -740.000 -720.000 -700.000 -680.000 -660.000 -640.000 -620.000 -600.000 -580.000 -560.000 -540.000 -520.000 -500.000 -480.000 -460.000 -440.000 -420.000 -400.000 -380.000 -360.000 -340.000 -320.000 -300.000 -280.000 -260.000 -240.000 -220.000 -200.000 -180.000 -160.000 -140.000 -120.000 -100.000 -80.000 -60.000 -40.000 -20.000 0.000
900 -2500.000 -2480.000 -2460.000 -2440.000 -2420.000 -2400.000 -2380.000 -2360.000 -2340.000 -2320.000 -2300.000 -2280.000 -2260.000 -2240.000 -2220.000 -2200.000 -2180.000 -2160.000 -2140.000 -2120.000 -2100.000 -2080.000 -2060.000 -2040.000 -2020.000 -2000.000 -1980.000 -1960.000 -1940.000 -1920.000 -1900.000 -1880.000 -1860.000 -1840.000 -1820.000 -1800.000 -1780.000 -1760.000 -1740.000 -1720.000 -1700.000 -1680.000 -1660.000 -1640.000 -1620.000 -1600.000 -1580.000 -1560.000 -1540.000 -1520.000 -1500.000 -1480.000 -1460.000 -1440.000 -1420.000 -1400.000 -1380.000 -1360.000 -1340.000 -1320.000 -1300.000 -1280.000 -1260.000 -1240.000 -1220.000 -1200.000 -1180.000 -1160.000 -1140.000 -1120.000 -1100.000 -1080.000 -1060.000 -1040.000 -1020.000 -1000.000 -980.000 -960.000 -940.000 -920.000 -900.000 -880.000 -860.000 -840.000 -820.000 -800.000 -780.000 -760.000 -740.000 -720.000 -700.000 -680.000 -660.000 -640.000 -620.000 -600.000 -580.000 -560.000 -540.000 -520.000 -500.000 -480.000 -460.000 -440.000 -420.000 -400.000 -380.000 -360.000 -340.000 -320.000 -300.000 -280.000 -260.000 -240.000 -220.000 -200.000 -180.000 -160.000 -140.000 -120.000 -100.000 -80.000 -60.000 -40.000 -20.000 0.000
920 -2500.000 -2480.000 -2460.000 -2440.000 -2420.000 -2400.000 -2380.000 -2360.000 -2340.000 -2320.000 -2300.000 -2280.000 -2260.000 -2240.000 -2220.000 -2200.000 -2180.000 -2160.000 -2140.000 -2120.000 -2100.000 -2080.000 -2060.000 -2040.000 -2020.000 -2000.000 -1980.000 -1960.000 -1940.000 -1920.000 -1900.000 -1880.000 -1860.000 -1840.000 -1820.000 -1800.000 -1780.000 -1760.000 -1740.000 -1720.000 -1700.000 -1680.000 -1660.000 -1640.000 -1620.000 -1600.000 -1580.000 -1560.000 -1540.000 -1520.000 -1500.000 -1480.000 -1460.000 -1440.000 -1420.000 -1400.000 -1380.000 -1360.000 -1340.000 -1320.000 -1300.000 -1280.000 -1260.000 -1240.000 -1220.000 -1200.000 -1180.000 -1160.000 -1140.000 -1120.000 -1100.000 -1080.000 -1060.000 -1040.000 -1020.000 -1000.000 -980.000 -960.000 -940.000 -920.000 -900.000 -880.000 -860.000 -840.000 -820.000 -800.000 -780.000 -760.000 -740.000 -720.000 -700.000 -680.000 -660.000 -640.000 -620.000 -600.000 -580.000 -560.000 -540.000 -520.000 -500.000 -480.000 -460.000 -440.000 -420.000 -400.000 -380.000 -360.000 -340.000 -320.000 -300.000 -280.000 -260.000 -240.000 -220.000 -200.000 -180.000 -160.000 -140.000 -120.000 -100.000 -80.000 -60.000 -40.000 -20.000 0.000
940 -2500.000 -2480.000 -2460.000 -2440.000 -2420.000 -2400.000 -2380.000 -2360.000 -2340.000 -2320.000 -2300.000 -2280.000 -2260.000 -2240.000 -2220.000 -2200.000 -2180.000 -2160.000 -2140.000 -2120.000 -2100.000 -2080.000 -2060.000 -2040.000 -2020.000 -2000.000 -1980.000 -1960.000 -1940.000 -1920.000 -1900.000 -1880.000 -1860.000 -1840.000 -1820.000 -1800.000 -1780.000 -1760.000 -1740.000 -1720.000 -1700.000 -1680.000 -1660.000 -1640.000 -1620.000 -1600.000 -1580.000 -1560.000 -1540.000 -1520.000 -1500.000 -1480.000 -1460.000 -1440.000 -1420.000 -1400.000 -1380.000 -1360.000 -1340.000 -1320.000 -1300.000 -1280.000 -1260.000 -1240.000 -1220.000 -1200.000 -1180.000 -1160.000 -1140.000 -1120.000 -1100.000 -1080.000 -1060.000 -1040.000 -1020.000 -1000.000 -980.000 -960.000 -940.000 -920.000 -900.000 -880.000 -860.000 -840.000 -820.000 -800.000 -780.000 -760.000 -740.000 -720.000 -700.000 -680.000 -660.000 -640.000 -620.000 -600.000 -580.000 -560.000 -540.000 -520.000 -500.000 -480.000 -460.000 -440.000 -420.000 -400.000 -380.000 -360.000 -340.000 -320.000 -300.000 -280.000 -260.000 -240.000 -220.000 -200.000 -180.000 -160.000 -140.000 -120.000 -100.000 -80.000 -60.000 -40.000 -20.000 0.000
960 -2500.000 -2480.000 -2460.000 -2440.000 -2420.000 -2400.000 -2380.000 -2360.000 -2340.000 -2320.000 -2300.000 -2280.000 -2260.000 -2240.000 -2220.000 -2200.000 -2180.000 -2160.000 -2140.000 -2120.000 -2100.000 -2080.000 -2060.000 -2040.000 -2020.000 -2000.000 -1980.000 -1960.000 -1940.000 -1920.000 -1900.000 -1880.000 -1860.000 -1840.000 -1820.000 -1800.000 -1780.000 -1760.000 -1740.000 -1720.000 -1700.000 -1680.000 -1660.000 -1640.000 -1620.000 -1600.000 -1580.000 -1560.000 -1540.000 -1520.000 -1500.000 -1480.000 -1460.000 -1440.000 -1420.000 -1400.000 -1380.000 -1360.000 -1340.000 -1320.000 -1300.000 -1280.000 -1260.000 -1240.000 -1220.000 -1200.000 -1180.000 -1160.000 -1140.000 -1120.000 -1100.000 -1080.000 -1060.000 -1040.000 -1020.000 -1000.000 -980.000 -960.000 -940.000 -920.000 -900.000 -880.000 -860.000 -840.000 -820.000 -800.000 -780.000 -760.000 -740.000 -720.000 -700.000 -680.000 -660.000 -640.000 -620.000 -600.000 -580.000 -560.000 -540.000 -520.000 -500.000 -480.000 -460.000 -440.000 -420.000 -400.000 -380.000 -360.000 -340.000 -320.000 -300.000 -280.000 -260.000 -240.000 -220.000 -200.000 -180.000 -160.000 -140.000 -120.000 -100.000 -80.000 -60.000 -40.000 -20.000 0.000
980 -2500.000 -2480.000 -2460.000 -2440.000 -2420.000 -2400.000 -2380.000 -2360.000 -2340.000 -2320.000 -2300.000 -2280.000 -2260.000 -2240.000 -2220.000 -2200.000 -2180.000 -2160.000 -2140.000 -2120.000 -2100.000 -2080.000 -2060.000 -2040.000 -2020.000 -2000.000 -1980.000 -1960.000 -1940.000 -1920.000 -1900.000 -1880.000 -1860.000 -1840.000 -1820.000 -1800.000 -1780.000 -1760.000 -1740.000 -1720.000 -1700.000 -1680.000 -1660.000 -1640.000 -1620.000 -1600.000 -1580.000 -1560.000 -1540.000 -1520.000 -1500.000 -1480.000 -1460.000 -1440.000 -1420.000 -1400.000 -1380.000 -1360.000 -1340.000 -1320.000 -1300.000 -1280.000 -1260.000 -1240.000 -1220.000 -1200.000 -1180.000 -1160.000 -1140.000 -1120.000 -1100.000 -1080.000 -1060.000 -1040.000 -1020.000 -1000.000 -980.000 -960.000 -940.000 -920.000 -900.000 -880.000 -860.000 -840.000 -820.000 -800.000 -780.000 -760.000 -740.000 -720.000 -700.000 -680.000 -660.000 -640.000 -620.000 -600.000 -580.000 -560.000 -540.000 -520.000 -500.000 -480.000 -460.000 -440.000 -420.000 -400.000 -380.000 -360.000 -340.000 -320.000 -300.000 -280.000 -260.000 -240.000 -220.000 -200.000 -180.000 -160.000 -140.000 -120.000 -100.000 -80.000 -60.000 -40.000 -20.000 0.000
1000 -2500.000 -2480.000 -2460.000 -2440.000 -2420.000 -2400.000 -2380.000 -2360.000 -2340.000 -2320.000 -2300.000 -2280.000 -2260.000 -2240.000 -2220.000 -2200.000 -2180.000 -2160.000 -2140.000 -2120.000 -2100.000 -2080.000 -2060.000 -2040.000 -2020.000 -2000.000 -1980.000 -1960.000 -1940.000 -1920.000 -1900.000 -1880.000 -1860.000 -1840.000 -1820.000 -1800.000 -1780.000 -1760.000 -1740.000 -1720.000 -1700.000 -1680.000 -1660.000 -1640.000 -1620.000 -1600.000 -1580.000 -1560.000 -1540.000 -1520.000 -1500.000 -1480.000 -1460.000 -1440.000 -1420.000 -1400.000 -1380.000 -1360.000 -1340.000 -1320.000 -1300.000 -1280.000 -1260.000 -1240.000 -1220.000 -1200.000 -1180.000 -1160.000 -1140.000 -1120.000 -1100.000 -1080.000 -1060.000 -1040.000 -1020.000 -1000.000 -980.000 -960.000 -940.000 -920.000 -900.000 -880.000 -860.000 -840.000 -820.000 -800.000 -780.000 -760.000 -740.000 -720.000 -700.000 -680.000 -660.000 -640.000 -620.000 -600.000 -580.000 -560.000 -540.000 -520.000 -500.000 -480.000 -460.000 -440.000 -420.000 -400.000 -380.000 -360.000 -340.000 -320.000 -300.000 -280.000 -260.000 -240.000 -220.000 -200.000 -180.000 -160.000 -140.000 -120.000 -100.000 -80.000 -60.000 -40.000 -20.000 0.000
1020 -2500.000 -2480.000 -2460.000 -2440.000 -2420.000 -2400.000 -2380.000 -2360.000 -2340.000 -2320.000 -2300.000 -2280.000 -2260.000 -2240.000 -2220.000 -2200.000 -2180.000 -2160.000 -2140.000 -2120.000 -2100.000 -2080.000 -2060.000 -2040.000 -2020.000 -2000.000 -1980.000 -1960.000 -1940.000 -1920.000 -1900.000 -1880.000 -1860.000 -1840.000 -1820.000 -1800.000 -1780.000 -1760.000 -1740.000 -1720.000 -1700.000 -1680.000 -1660.000 -1640.000 -1620.000 -1600.000 -1580.000 -1560.000 -1540.000 -1520.000 -1500.000 -1480.000 -1460.000 -1440.000 -1420.000 -1400.000 -1380.000 -1360.000 -1340.000 -1320.000 -1300.000 -1280.000 -1260.000 -1240.000 -1220.000 -1200.000 -1180.000 -1160.000 -1140.000 -1120.000 -1100.000 -1080.000 -1060.000 -1040.000 -1020.000 -1000.000 -980.000 -960.000 -940.000 -920.000 -900.000 -880.000 -860.000 -840.000 -820.000 -800.000 -780.000 -760.000 -740.000 -720.000 -700.000 -680.000 -660.000 -640.000 -620.000 -600.000 -580.000 -560.000 -540.000 -520.000 -500.000 -480.000 -460.000 -440.000 -420.000 -400.000 -380.000 -360.000 -340.000 -320.000 -300.000 -280.000 -260.000 -240.000 -220.000 -200.000 -180.000 -160.000 -140.000 -120.000 -100.000 -80.000 -60.000 -40.000 -20.000 0.000
1040 -2500.000 -2480.000 -2460.000 -2440.000 -2420.000 -2400.000 -2380.000 -2360.000 -2340.000 -2320.000 -2300.000 -2280.000 -2260.000 -2240.000 -2220.000 -2200.000 -2180.000 -2160.000 -2140.000 -2120.000 -2100.000 -2080.000 -2060.000 -2040.000 -2020.000 -2000.000 -1980.000 -1960.000 -1940.000 -1920.000 -1900.000 -1880.000 -1860.000 -1840.000 -1820.000 -1800.000 -1780.000 -1760.000 -1740.000 -1720.000 -1700.000 -1680.000 -1660.000 -1640.000 -1620.000 -1600.000 -1580.000 -1560.000 -1540.000 -1520.000 -1500.000 -1480.000 -1460.000 -1440.000 -1420.000 -1400.000 -1380.000 -1360.000 -1340.000 -1320.000 -1300.000 -1280.000 -1260.000 -1240.000 -1220.000 -1200.000 -1180.000 -1160.000 -1140.000 -1120.000 -1100.000 -1080.000 -1060.000 -1040.000 -1020.000 -1000.000 -980.000 -960.000 -940.000 -920.000 -900.000 -880.000 -860.000 -840.000 -820.000 -800.000 -780.000 -760.000 -740.000 -720.000 -700.000 -680.000 -660.000 -640.000 -620.000 -600.000 -580.000 -560.000 -540.000 -520.000 -500.000 -480.000 -460.000 -440.000 -420.000 -400.000 -380.000 -360.000 -340.000 -320.000 -300.000 -280.000 -260.000 -240.000 -220.000 -200.000 -180.000 -160.000 -140.000 -120.000 -100.000 -80.000 -60.000 -40.000 -20.000 0.000
1060 -2500.000 -2480.000 -2460.000 -2440.000 -2420.000 -2400.000 -2380.000 -2360.000 -2340.000 -2320.000 -2300.000 -2280.000 -2260.000 -2240.000 -2220.000 -2200.000 -2180.000 -2160.000 -2140.000 -2120.000 -2100.000 -2080.000 -2060.000 -2040.000 -2020.000 -2000.000 -1980.000 -1960.000 -1940.000 -1920.000 -1900.000 -1880.000 -1860.000 -1840.000 -1820.000 -1800.000 -1780.000 -1760.000 -1740.000 -1720.000 -1700.000 -1680.000 -1660.000 -1640.000 -1620.000 -1600.000 -1580.000 -1560.000 -1540.000 -1520.000 -1500.000 -1480.000 -1460.000 -1440.000 -1420.000 -1400.000 -1380.000 -1360.000 -1340.000 -1320.000 -1300.000 -1280.000 -1260.000 -1240.000 -1220.000 -1200.000 -1180.000 -1160.000 -1140.000 -1120.000 -1100.000 -1080.000 -1060.000 -1040.000 -1020.000 -1000.000 -980.000 -960.000 -940.000 -920.000 -900.000 -880.000 -860.000 -840.000 -820.000 -800.000 -780.000 -760.000 -740.000 -720.000 -700.000 -680.000 -660.000 -640.000 -620.000 -600.000 -580.000 -560.000 -540.000 -520.000 -500.000 -480.000 -460.000 -440.000 -420.000 -400.000 -380.000 -360.000 -340.000 -320.000 -300.000 -280.000 -260.000 -240.000 -220.000 -200.000 -180.000 -160.000 -140.000 -120.000 -100.000 -80.000 -60.000 -40.000 -20.000 0.000
1080 -2500.000 -2480.000 -2460.000 -2440.000 -2420.000 -2400.000 -2380.000 -2360.000 -2340.000 -2320.000 -2300.000 -2280.000 -2260.000 -2240.000 -2220.000 -2200.000 -2180.000 -2160.000 -2140.000 -2120.000 -2100.000 -2080.000 -2060.000 -2040.000 -2020.000 -2000.000 -1980.000 -1960.000 -1940.000 -1920.000 -1900.000 -1880.000 -1860.000 -1840.000 -1820.000 -1800.000 -1780.000 -1760.000 -1740.000 -1720.000 -1700.000 -1680.000 -1660.000 -1640.000 -1620.000 -1600.000 -1580.000 -1560.000 -1540.000 -1520.000 -1500.000 -1480.000 -1460.000 -1440.000 -1420.000 -1400.000 -1380.000 -1360.000 -1340.000 -1320.000 -1300.000 -1280.000 -1260.000 -1240.000 -1220.000 -1200.000 -1180.000 -1160.000 -1140.000 -1120.000 -1100.000 -1080.000 -1060.000 -1040.000 -1020.000 -1000.000 -980.000 -960.000 -940.000 -920.000 -900.000 -880.000 -860.000 -840.000 -820.000 -800.000 -780.000 -760.000 -740.000 -720.000 -700.000 -680.000 -660.000 -640.000 -620.000 -600.000 -580.000 -560.000 -540.000 -520.000 -500.000 -480.000 -460.000 -440.000 -420.000 -400.000 -380.000 -360.000 -340.000 -320.000 -300.000 -280.000 -260.000 -240.000 -220.000 -200.000 -180.000 -160.000 -140.000 -120.000 -100.000 -80.000 -60.000 -40.000 -20.000 0.000
1100 -2500.000 -2480.000 -2460.000 -2440.000 -2420.000 -2400.000 -2380.000 -2360.000 -2340.000 -2320.000 -2300.000 -2280.000 -2260.000 -2240.000 -2220.000 -2200.000 -2180.000 -2160.000 -2140.000 -2120.000 -2100.000 -2080.000 -2060.000 -2040.000 -2020.000 -2000.000 -1980.000 -1960.000 -1940.000 -1920.000 -1900.000 -1880.000 -1860.000 -1840.000 -1820.000 -1800.000 -1780.000 -1760.000 -1740.000 -1720.000 -1700.000 -1680.000 -1660.000 -1640.000 -1620.000 -1600.000 -1580.000 -1560.000 -1540.000 -1520.000 -1500.000 -1480.000 -1460.000 -1440.000 -1420.000 -1400.000 -1380.000 -1360.000 -1340.000 -1320.000 -1300.000 -1280.000 -1260.000 -1240.000 -1220.000 -1200.000 -1180.000 -1160.000 -1140.000 -1120.000 -1100.000 -1080.000 -1060.000 -1040.000 -1020.000 -1000.000 -980.000 -960.000 -940.000 -920.000 -900.000 -880.000 -860.000 -840.000 -820.000 -800.000 -780.000 -760.000 -740.000 -720.000 -700.000 -680.000 -660.000 -640.000 -620.000 -600.000 -580.000 -560.000 -540.000 -520.000 -500.000 -480.000 -460.000 -440.000 -420.000 -400.000 -380.000 -360.000 -340.000 -320.000 -300.000 -280.000 -260.000 -240.000 -220.000 -200.000 -180.000 -160.000 -140.000 -120.000 -100.000 -80.000 -60.000 -40.000 -20.000 0.000
1120 -2500.000 -2480.000 -2460.000 -2440.000 -2420.000 -2400.000 -2380.000 -2360.000 -2340.000 -2320.000 -2300.000 -2280.000 -2260.000 -2240.000 -2220.000 -2200.000 -2180.000 -2160.000 -2140.000 -2120.000 -2100.000 -2080.000 -2060.000 -2040.000 -2020.000 -2000.000 -1980.000 -1960.000 -1940.000 -1920.000 -1900.000 -1880.000 -1860.000 -1840.000 -1820.000 -1800.000 -1780.000 -1760.000 -1740.000 -1720.000 -1700.000 -1680.000 -1660.000 -1640.000 -1620.000 -1600.000 -1580.000 -1560.000 -1540.000 -1520.000 -1500.000 -1480.000 -1460.000 -1440.000 -1420.000 -1400.000 -1380.000 -1360.000 -1340.000 -1320.000 -1300.000 -1280.000 -1260.000 -1240.000 -1220.000 -1200.000 -1180.000 -1160.000 -1140.000 -1120.000 -1100.000 -1080.000 -1060.000 -1040.000 -1020.000 -1000.000 -980.000 -960.000 -940.000 -920.000 -900.000 -880.000 -860.000 -840.000 -820.000 -800.000 -780.000 -760.000 -740.000 -720.000 -700.000 -680.000 -660.000 -640.000 -620.000 -600.000 -580.000 -560.000 -540.000 -520.000 -500.000 -480.000 -460.000 -440.000 -420.000 -400.000 -380.000 -360.000 -340.000 -320.000 -300.000 -280.000 -260.000 -240.000 -220.000 -200.000 -180.000 -160.000 -140.000 -120.000 -100.000 -80.000 -60.000 -40.000 -20.000 0.000
1140 -2500.000 -2480.000 -2460.000 -2440.000 -2420.000 -2400.000 -2380.000 -2360.000 -2340.000 -2320.000 -2300.000 -2280.000 -2260.000 -2240.000 -2220.000 -2200.000 -2180.000 -2160.000 -2140.000 -2120.000 -2100.000 -2080.000 -2060.000 -2040.000 -2020.000 -2000.000 -1980.000 -1960.000 -1940.000 -1920.000 -1900.000 -1880.000 -1860.000 -1840.000 -1820.000 -1800.000 -1780.000 -1760.000 -1740.000 -1720.000 -1700.000 -1680.000 -1660.000 -1640.000 -1620.000 -1600.000 -1580.000 -1560.000 -1540.000 -1520.000 -1500.000 -1480.000 -1460.000 -1440.000 -1420.000 -1400.000 -1380.000 -1360.000 -1340.000 -1320.000 -1300.000 -1280.000 -1260.000 -1240.000 -1220.000 -1200.000 -1180.000 -1160.000 -1140.000 -1120.000 -1100.000 -1080.000 -1060.000 -1040.000 -1020.000 -1000.000 -980.000 -960.000 -940.000 -920.000 -900.000 -880.000 -860.000 -840.000 -820.000 -800.000 -780.000 -760.000 -740.000 -720.000 -700.000 -680.000 -660.000 -640.000 -620.000 -600.000 -580.000 -560.000 -540.000 -520.000 -500.000 -480.000 -460.000 -440.000 -420.000 -400.000 -380.000 -360.000 -340.000 -320.000 -300.000 -280.000 -260.000 -240.000 -220.000 -200.000 -180.000 -160.000 -140.000 -120.000 -100.000 -80.000 -60.000 -40.000 -20.000 0.000
1160 -2500.000 -2480.000 -2460.000 -2440.000 -2420.000 -2400.000 -2380.000 -2360.000 -2340.000 -2320.000 -2300.000 -2280.000 -2260.000 -2240.000 -2220.000 -2200.000 -2180.000 -2160.000 -2140.000 -2120.000 -2100.000 -2080.000 -2060.000 -2040.000 -2020.000 -2000.000 -1980.000 -1960.000 -1940.000 -1920.000 -1900.000 -1880.000 -1860.000 -1840.000 -1820.000 -1800.000 -1780.000 -1760.000 -1740.000 -1720.000 -1700.000 -1680.000 -1660.000 -1640.000 -1620.000 -1600.000 -1580.000 -1560.000 -1540.000 -1520.000 -1500.000 -1480.000 -1460.000 -1440.000 -1420.000 -1400.000 -1380.000 -1360.000 -1340.000 -1320.000 -1300.000 -1280.000 -1260.000 -1240.000 -1220.000 -1200.000 -1180.000 -1160.000 -1140.000 -1120.000 -1100.000 -1080.000 -1060.000 -1040.000 -1020.000 -1000.000 -980.000 -960.000 -940.000 -920.000 -900.000 -880.000 -860.000 -840.000 -820.000 -800.000 -780.000 -760.000 -740.000 -720.000 -700.000 -680.000 -660.000 -640.000 -620.000 -600.000 -580.000 -560.000 -540.000 -520.000 -500.000 -480.000 -460.000 -440.000 -420.000 -400.000 -380.000 -360.000 -340.000 -320.000 -300.000 -280.000 -260.000 -240.000 -220.000 -200.000 -180.000 -160.000 -140.000 -120.000 -100.000 -80.000 -60.000 -40.000 -20.000 0.000
1180 -2500.000 -2480.000 -2460.000 -2440.000 -2420.000 -2400.000 -2380.000 -2360.000 -2340.000 -2320.000 -2300.000 -2280.000 -2260.000 -2240.000 -2220.000 -2200.000 -2180.000 -2160.000 -2140.000 -2120.000 -2100.000 -2080.000 -2060.000 -2040.000 -2020.000 -2000.000 -1980.000 -1960.000 -1940.000 -1920.000 -1900.000 -1880.000 -1860.000 -1840.000 -1820.000 -1800.000 -1780.000 -1760.000 -1740.000 -1720.000 -1700.000 -1680.000 -1660.000 -1640.000 -1620.000 -1600.000 -1580.000 -1560.000 -1540.000 -1520.000 -1500.000 -1480.000 -1460.000 -1440.000 -1420.000 -1400.000 -1380.000 -1360.000 -1340.000 -1320.000 -1300.000 -1280.000 -1260.000 -1240.000 -1220.000 -1200.000 -1180.000 -1160.000 -1140.000 -1120.000 -1100.000 -1080.000 -1060.000 -1040.000 -1020.000 -1000.000 -980.000 -960.000 -940.000 -920.000 -900.000 -880.000 -860.000 -840.000 -820.000 -800.000 -780.000 -760.000 -740.000 -720.000 -700.000 -680.000 -660.000 -640.000 -620.000 -600.000 -580.000 -560.000 -540.000 -520.000 -500.000 -480.000 -460.000 -440.000 -420.000 -400.000 -380.000 -360.000 -340.000 -320.000 -300.000 -280.000 -260.000 -240.000 -220.000 -200.000 -180.000 -160.000 -140.000 -120.000 -100.000 -80.000 -60.000 -40.000 -20.000 0.000
1200 -2500.000 -2480.000 -2460.000 -2440.000 -2420.000 -2400.000 -2380.000 -2360.000 -2340.000 -2320.000 -2300.000 -2280.000 -2260.000 -2240.000 -2220.000 -2200.000 -2180.000 -2160.000 -2140.000 -2120.000 -2100.000 -2080.000 -2060.000 -2040.000 -2020.000 -2000.000 -1980.000 -1960.000 -1940.000 -1920.000 -1900.000 -1880.000 -1860.000 -1840.000 -1820.000 -1800.000 -1780.000 -1760.000 -1740.000 -1720.000 -1700.000 -1680.000 -1660.000 -1640.000 -1620.000 -1600.000 -1580.000 -1560.000 -1540.000 -1520.000 -1500.000 -1480.000 -1460.000 -1440.000 -1420.000 -1400.000 -1380.000 -1360.000 -1340.000 -1320.000 -1300.000 -1280.000 -1260.000 -1240.000 -1220.000 -1200.000 -1180.000 -1160.000 -1140.000 -1120.000 -1100.000 -1080.000 -1060.000 -1040.000 -1020.000 -1000.000 -980.000 -960.000 -940.000 -920.000 -900.000 -880.000 -860.000 -840.000 -820.000 -800.000 -780.000 -760.000 -740.000 -720.000 -700.000 -680.000 -660.000 -640.000 -620.000 -600.000 -580.000 -560.000 -540.000 -520.000 -500.000 -480.000 -460.000 -440.000 -420.000 -400.000 -380.000 -360.000 -340.000 -320.000 -300.000 -280.000 -260.000 -240.000 -220.000 -200.000 -180.000 -160.000 -140.000 -120.000 -100.000 -80.000 -60.000 -40.000 -20.000 0.000
1220 -2500.000 -2480.000 -2460.000 -2440.000 -2420.000 -2400.000 -2380.000 -2360.000 -2340.000 -2320.000 -2300.000 -2280.000 -2260.000 -2240.000 -2220.000 -2200.000 -2180.000 -2160.000 -2140.000 -2120.000 -2100.000 -2080.000 -2060.000 -2040.000 -2020.000 -2000.000 -1980.000 -1960.000 -1940.000 -1920.000 -1900.000 -1880.000 -1860.000 -1840.000 -1820.000 -1800.000 -1780.000 -1760.000 -1740.000 -1720.000 -1700.000 -1680.000 -1660.000 -1640.000 -1620.000 -1600.000 -1580.000 -1560.000 -1540.000 -1520.000 -1500.000 -1480.000 -1460.000 -1440.000 -1420.000 -1400.000 -1380.000 -1360.000 -1340.000 -1320.000 -1300.000 -1280.000 -1260.000 -1240.000 -1220.000 -1200.000 -1180.000 -1160.000 -1140.000 -1120.000 -1100.000 -1080.000 -1060.000 -1040.000 -1020.000 -1000.000 -980.000 -960.000 -940.000 -920.000 -900.000 -880.000 -860.000 -840.000 -820.000 -800.000 -780.000 -760.000 -740.000 -720.000 -700.000 -680.000 -660.000 -640.000 -620.000 -600.000 -580.000 -560.000 -540.000 -520.000 -500.000 -480.000 -460.000 -440.000 -420.000 -400.000 -380.000 -360.000 -340.000 -320.000 -300.000 -280.000 -260.000 -240.000 -220.000 -200.000 -180.000 -160.000 -140.000 -120.000 -100.000 -80.000 -60.000 -40.000 -20.000 0.000
1240 -2500.000 -2480.000 -2460.000 -2440.000 -2420.000 -2400.000 -2380.000 -2360.000 -2340.000 -2320.000 -2300.000 -2280.000 -2260.000 -2240.000 -2220.000 -2200.000 -2180.000 -2160.000 -2140.000 -2120.000 -2100.000 -2080.000 -2060.000 -2040.000 -2020.000 -2000.000 -1980.000 -1960.000 -1940.000 -1920.000 -1900.000 -1880.000 -1860.000 -1840.000 -1820.000 -1800.000 -1780.000 -1760.000 -1740.000 -1720.000 -1700.000 -1680.000 -1660.000 -1640.000 -1620.000 -1600.000 -1580.000 -1560.000 -1540.000 -1520.000 -1500.000 -1480.000 -1460.000 -1440.000 -1420.000 -1400.000 -1380.000 -1360.000 -1340.000 -1320.000 -1300.000 -1280.000 -1260.000 -1240.000 -1220.000 -1200.000 -1180.000 -1160.000 -1140.000 -1120.000 -1100.000 -1080.000 -1060.000 -1040.000 -1020.000 -1000.000 -980.000 -960.000 -940.000 -920.000 -900.000 -880.000 -860.000 -840.000 -820.000 -800.000 -780.000 -760.000 -740.000 -720.000 -700.000 -680.000 -660.000 -640.000 -620.000 -600.000 -580.000 -560.000 -540.000 -520.000 -500.000 -480.000 -460.000 -440.000 -420.000 -400.000 -380.000 -360.000 -340.000 -320.000 -300.000 -280.000 -260.000 -240.000 -220.000 -200.000 -180.000 -160.000 -140.000 -120.000 -100.000 -80.000 -60.000 -40.000 -20.000 0.000
1260 -2500.000 -2480.000 -2460.000 -2440.000 -2420.000 -2400.000 -2380.000 -2360.000 -2340.000 -2320.000 -2300.000 -2280.000 -2260.000 -2240.000 -2220.000 -2200.000 -2180.000 -2160.000 -2140.000 -2120.000 -2100.000 -2080.000 -2060.000 -2040.000 -2020.000 -2000.000 -1980.000 -1960.000 -1940.000 -1920.000 -1900.000 -1880.000 -1860.000 -1840.000 -1820.000 -1800.000 -1780.000 -1760.000 -1740.000 -1720.000 -1700.000 -1680.000 -1660.000 -1640.000 -1620.000 -1600.000 -1580.000 -1560.000 -1540.000 -1520.000 -1500.000 -1480.000 -1460.000 -1440.000 -1420.000 -1400.000 -1380.000 -1360.000 -1340.000 -1320.000 -1300.000 -1280.000 -1260.000 -1240.000 -1220.000 -1200.000 -1180.000 -1160.000 -1140.000 -1120.000 -1100.000 -1080.000 -1060.000 -1040.000 -1020.000 -1000.000 -980.000 -960.000 -940.000 -920.000 -900.000 -880.000 -860.000 -840.000 -820.000 -800.000 -780.000 -760.000 -740.000 -720.000 -700.000 -680.000 -660.000 -640.000 -620.000 -600.000 -580.000 -560.000 -540.000 -520.000 -500.000 -480.000 -460.000 -440.000 -420.000 -400.000 -380.000 -360.000 -340.000 -320.000 -300.000 -280.000 -260.000 -240.000 -220.000 -200.000 -180.000 -160.000 -140.000 -120.000 -100.000 -80.000 -60.000 -40.000 -20.000 0.000
1280 -2500.000 -2480.000 -2460.000 -2440.000 -2420.000 -2400.000 -2380.000 -2360.000 -2340.000 -2320.000 -2300.000 -2280.000 -2260.000 -2240.000 -2220.000 -2200.000 -2180.000 -2160.000 -2140.000 -2120.000 -2100.000 -2080.000 -2060.000 -2040.000 -2020.000 -2000.000 -1980.000 -1960.000 -1940.000 -1920.000 -1900.000 -1880.000 -1860.000 -1840.000 -1820.000 -1800.000 -1780.000 -1760.000 -1740.000 -1720.000 -1700.000 -1680.000 -1660.000 -1640.000 -1620.000 -1600.000 -1580.000 -1560.000 -1540.000 -1520.000 -1500.000 -1480.000 -1460.000 -1440.000 -1420.000 -1400.000 -1380.000 -1360.000 -1340.000 -1320.000 -1300.000 -1280.000 -1260.000 -1240.000 -1220.000 -1200.000 -1180.000 -1160.000 -1140.000 -1120.000 -1100.000 -1080.000 -1060.000 -1040.000 -1020.000 -1000.000 -980.000 -960.000 -940.000 -920.000 -900.000 -880.000 -860.000 -840.000 -820.000 -800.000 -780.000 -760.000 -740.000 -720.000 -700.000 -680.000 -660.000 -640.000 -620.000 -600.000 -580.000 -560.000 -540.000 -520.000 -500.000 -480.000 -460.000 -440.000 -420.000 -400.000 -380.000 -360.000 -340.000 -320.000 -300.000 -280.000 -260.000 -240.000 -220.000 -200.000 -180.000 -160.000 -140.000 -120.000 -100.000 -80.000 -60.000 -40.000 -20.000 0.000
1300 -2500.000 -2480.000 -2460.000 -2440.000 -2420.000 -2400.000 -2380.000 -2360.000 -2340.000 -2320.000 -2300.000 -2280.000 -2260.000 -2240.000 -2220.000 -2200.000 -2180.000 -2160.000 -2140.000 -2120.000 -2100.000 -2080.000 -2060.000 -2040.000 -2020.000 -2000.000 -1980.000 -1960.000 -1940.000 -1920.000 -1900.000 -1880.000 -1860.000 -1840.000 -1820.000 -1800.000 -1780.000 -1760.000 -1740.000 -1720.000 -1700.000 -1680.000 -1660.000 -1640.000 -1620.000 -1600.000 -1580.000 -1560.000 -1540.000 -1520.000 -1500.000 -1480.000 -1460.000 -1440.000 -1420.000 -1400.000 -1380.000 -1360.000 -1340.000 -1320.000 -1300.000 -1280.000 -1260.000 -1240.000 -1220.000 -1200.000 -1180.000 -1160.000 -1140.000 -1120.000 -1100.000 -1080.000 -1060.000 -1040.000 -1020.000 -1000.000 -980.000 -960.000 -940.000 -920.000 -900.000 -880.000 -860.000 -840.000 -820.000 -800.000 -780.000 -760.000 -740.000 -720.000 -700.000 -680.000 -660.000 -640.000 -620.000 -600.000 -580.000 -560.000 -540.000 -520.000 -500.000 -480.000 -460.000 -440.000 -420.000 -400.000 -380.000 -360.000 -340.000 -320.000 -300.000 -280.000 -260.000 -240.000 -220.000 -200.000 -180.000 -160.000 -140.000 -120.000 -100.000 -80.000 -60.000 -40.000 -20.000 0.000
1320 -2500.000 -2480.000 -2460.000 -2440.000 -2420.000 -2400.000 -2380.000 -2360.000 -2340.000 -2320.000 -2300.000 -2280.000 -2260.000 -2240.000 -2220.000 -2200.000 -2180.000 -2160.000 -2140.000 -2120.000 -2100.000 -2080.000 -2060.000 -2040.000 -2020.000 -2000.000 -1980.000 -1960.000 -1940.000 -1920.000 -1900.000 -1880.000 -1860.000 -1840.000 -1820.000 -1800.000 -1780.000 -1760.000 -1740.000 -1720.000 -1700.000 -1680.000 -1660.000 -1640.000 -1620.000 -1600.000 -1580.000 -1560.000 -1540.000 -1520.000 -1500.000 -1480.000 -1460.000 -1440.000 -1420.000 -1400.000 -1380.000 -1360.000 -1340.000 -1320.000 -1300.000 -1280.000 -1260.000 -1240.000 -1220.000 -1200.000 -1180.000 -1160.000 -1140.000 -1120.000 -1100.000 -1080.000 -1060.000 -1040.000 -1020.000 -1000.000 -980.000 -960.000 -940.000 -920.000 -900.000 -880.000 -860.000 -840.000 -820.000 -800.000 -780.000 -760.000 -740.000 -720.000 -700.000 -680.000 -660.000 -640.000 -620.000 -600.000 -580.000 -560.000 -540.000 -520.000 -500.000 -480.000 -460.000 -440.000 -420.000 -400.000 -380.000 -360.000 -340.000 -320.000 -300.000 -280.000 -260.000 -240.000 -220.000 -200.000 -180.000 -160.000 -140.000 -120.000 -100.000 -80.000 -60.000 -40.000 -20.000 0.000
1340 -2500.000 -2480.000 -2460.000 -2440.000 -2420.000 -2400.000 -2380.000 -2360.000 -2340.000 -2320.000 -2300.000 -2280.000 -2260.000 -2240.000 -2220.000 -2200.000 -2180.000 -2160.000 -2140.000 -2120.000 -2100.000 -2080.000 -2060.000 -2040.000 -2020.000 -2000.000 -1980.000 -1960.000 -1940.000 -1920.000 -1900.000 -1880.000 -1860.000 -1840.000 -1820.000 -1800.000 -1780.000 -1760.000 -1740.000 -1720.000 -1700.000 -1680.000 -1660.000 -1640.000 -1620.000 -1600.000 -1580.000 -1560.000 -1540.000 -1520.000 -1500.000 -1480.000 -1460.000 -1440.000 -1420.000 -1400.000 -1380.000 -1360.000 -1340.000 -1320.000 -1300.000 -1280.000 -1260.000 -1240.000 -1220.000 -1200.000 -1180.000 -1160.000 -1140.000 -1120.000 -1100.000 -1080.000 -1060.000 -1040.000 -1020.000 -1000.000 -980.000 -960.000 -940.000 -920.000 -900.000 -880.000 -860.000 -840.000 -820.000 -800.000 -780.000 -760.000 -740.000 -720.000 -700.000 -680.000 -660.000 -640.000 -620.000 -600.000 -580.000 -560.000 -540.000 -520.000 -500.000 -480.000 -460.000 -440.000 -420.000 -400.000 -380.000 -360.000 -340.000 -320.000 -300.000 -280.000 -260.000 -240.000 -220.000 -200.000 -180.000 -160.000 -140.000 -120.000 -100.000 -80.000 -60.000 -40.000 -20.000 0.000
1360 -2500.000 -2480.000 -2460.000 -2440.000 -2420.000 -2400.000 -2380.000 -2360.000 -2340.000 -2320.000 -2300.000 -2280.000 -2260.000 -2240.000 -2220.000 -2200.000 -2180.000 -2160.000 -2140.000 -2120.000 -2100.000 -2080.000 -2060.000 -2040.000 -2020.000 -2000.000 -1980.000 -1960.000 -1940.000 -1920.000 -1900.000 -1880.000 -1860.000 -1840.000 -1820.000 -1800.000 -1780.000 -1760.000 -1740.000 -1720.000 -1700.000 -1680.000 -1660.000 -1640.000 -1620.000 -1600.000 -1580.000 -1560.000 -1540.000 -1520.000 -1500.000 -1480.000 -1460.000 -1440.000 -1420.000 -1400.000 -1380.000 -1360.000 -1340.000 -1320.000 -1300.000 -1280.000 -1260.000 -1240.000 -1220.000 -1200.000 -1180.000 -1160.000 -1140.000 -1120.000 -1100.000 -1080.000 -1060.000 -1040.000 -1020.000 -1000.000 -980.000 -960.000 -940.000 -920.000 -900.000 -880.000 -860.000 -840.000 -820.000 -800.000 -780.000 -760.000 -740.000 -720.000 -700.000 -680.000 -660.000 -640.000 -620.000 -600.000 -580.000 -560.000 -540.000 -520.000 -500.000 -480.000 -460.000 -440.000 -420.000 -400.000 -380.000 -360.000 -340.000 -320.000 -300.000 -280.000 -260.000 -240.000 -220.000 -200.000 -180.000 -160.000 -140.000 -120.000 -100.000 -80.000 -60.000 -40.000 -20.000 0.000
1380 -2500.000 -2480.000 -2460.000 -2440.000 -2420.000 -2400.000 -2380.000 -2360.000 -2340.000 -2320.000 -2300.000 -2280.000 -2260.000 -2240.000 -2220.000 -2200.000 -2180.000 -2160.000 -2140.000 -2120.000 -2100.000 -2080.000 -2060.000 -2040.000 -2020.000 -2000.000 -1980.000 -1960.000 -1940.000 -1920.000 -1900.000 -1880.000 -1860.000 -1840.000 -1820.000 -1800.000 -1780.000 -1760.000 -1740.000 -1720.000 -1700.000 -1680.000 -1660.000 -1640.000 -1620.000 -1600.000 -1580.000 -1560.000 -1540.000 -1520.000 -1500.000 -1480.000 -1460.000 -1440.000 -1420.000 -1400.000 -1380.000 -1360.000 -1340.000 -1320.000 -1300.000 -1280.000 -1260.000 -1240.000 -1220.000 -1200.000 -1180.000 -1160.000 -1140.000 -1120.000 -1100.000 -1080.000 -1060.000 -1040.000 -1020.000 -1000.000 -980.000 -960.000 -940.000 -920.000 -900.000 -880.000 -860.000 -840.000 -820.000 -800.000 -780.000 -760.000 -740.000 -720.000 -700.000 -680.000 -660.000 -640.000 -620.000 -600.000 -580.000 -560.000 -540.000 -520.000 -500.000 -480.000 -460.000 -440.000 -420.000 -400.000 -380.000 -360.000 -340.000 -320.000 -300.000 -280.000 -260.000 -240.000 -220.000 -200.000 -180.000 -160.000 -140.000 -120.000 -100.000 -80.000 -60.000 -40.000 -20.000 0.000
1400 -2500.000 -2480.000 -2460.000 -2440.000 -2420.000 -2400.000 -2380.000 -2360.000 -2340.000 -2320.000 -2300.000 -2280.000 -2260.000 -2240.000 -2220.000 -2200.000 -2180.000 -2160.000 -2140.000 -2120.000 -2100.000 -2080.000 -2060.000 -2040.000 -2020.000 -2000.000 -1980.000 -1960.000 -1940.000 -1920.000 -1900.000 -1880.000 -1860.000 -1840.000 -1820.000 -1800.000 -1780.000 -1760.000 -1740.000 -1720.000 -1700.000 -1680.000 -1660.000 -1640.000 -1620.000 -1600.000 -1580.000 -1560.000 -1540.000 -1520.000 -1500.000 -1480.000 -1460.000 -1440.000 -1420.000 -1400.000 -1380.000 -1360.000 -1340.000 -1320.000 -1300.000 -1280.000 -1260.000 -1240.000 -1220.000 -1200.000 -1180.000 -1160.000 -1140.000 -1120.000 -1100.000 -1080.000 -1060.000 -1040.000 -1020.000 -1000.000 -980.000 -960.000 -940.000 -920.000 -900.000 -880.000 -860.000 -840.000 -820.000 -800.000 -780.000 -760.000 -740.000 -720.000 -700.000 -680.000 -660.000 -640.000 -620.000 -600.000 -580.000 -560.000 -540.000 -520.000 -500.000 -480.000 -460.000 -440.000 -420.000 -400.000 -380.000 -360.000 -340.000 -320.000 -300.000 -280.000 -260.000 -240.000 -220.000 -200.000 -180.000 -160.000 -140.000 -120.000 -100.000 -80.000 -60.000 -40.000 -20.000 0.000
1420 -2500.000 -2480.000 -2460.000 -2440.000 -2420.000 -2400.000 -2380.000 -2360.000 -2340.000 -2320.000 -2300.000 -2280.000 -2260.000 -2240.000 -2220.000 -2200.000 -2180.000 -2160.000 -2140.000 -2120.000 -2100.000 -2080.000 -2060.000 -2040.000 -2020.000 -2000.000 -1980.000 -1960.000 -1940.000 -1920.000 -1900.000 -1880.000 -1860.000 -1840.000 -1820.000 -1800.000 -1780.000 -1760.000 -1740.000 -1720.000 -1700.000 -1680.000 -1660.000 -1640.000 -1620.000 -1600.000 -1580.000 -1560.000 -1540.000 -1520.000 -1500.000 -1480.000 -1460.000 -1440.000 -1420.000 -1400.000 -1380.000 -1360.000 -1340.000 -1320.000 -1300.000 -1280.000 -1260.000 -1240.000 -1220.000 -1200.000 -1180.000 -1160.000 -1140.000 -1120.000 -1100.000 -1080.000 -1060.000 -1040.000 -1020.000 -1000.000 -980.000 -960.000 -940.000 -920.000 -900.000 -880.000 -860.000 -840.000 -820.000 -800.000 -780.000 -760.000 -740.000 -720.000 -700.000 -680.000 -660.000 -640.000 -620.000 -600.000 -580.000 -560.000 -540.000 -520.000 -500.000 -480.000 -460.000 -440.000 -420.000 -400.000 -380.000 -360.000 -340.000 -320.000 -300.000 -280.000 -260.000 -240.000 -220.000 -200.000 -180.000 -160.000 -140.000 -120.000 -100.000 -80.000 -60.000 -40.000 -20.000 0.000
1440 -2500.000 -2480.000 -2460.000 -2440.000 -2420.000 -2400.000 -2380.000 -2360.000 -2340.000 -2320.000 -2300.000 -2280.000 -2260.000 -2240.000 -2220.000 -2200.000 -2180.000 -2160.000 -2140.000 -2120.000 -2100.000 -2080.000 -2060.000 -2040.000 -2020.000 -2000.000 -1980.000 -1960.000 -1940.000 -1920.000 -1900.000 -1880.000 -1860.000 -1840.000 -1820.000 -1800.000 -1780.000 -1760.000 -1740.000 -1720.000 -1700.000 -1680.000 -1660.000 -1640.000 -1620.000 -1600.000 -1580.000 -1560.000 -1540.000 -1520.000 -1500.000 -1480.000 -1460.000 -1440.000 -1420.000 -1400.000 -1380.000 -1360.000 -1340.000 -1320.000 -1300.000 -1280.000 -1260.000 -1240.000 -1220.000 -1200.000 -1180.000 -1160.000 -1140.000 -1120.000 -1100.000 -1080.000 -1060.000 -1040.000 -1020.000 -1000.000 -980.000 -960.000 -940.000 -920.000 -900.000 -880.000 -860.000 -840.000 -820.000 -800.000 -780.000 -760.000 -740.000 -720.000 -700.000 -680.000 -660.000 -640.000 -620.000 -600.000 -580.000 -560.000 -540.000 -520.000 -500.000 -480.000 -460.000 -440.000 -420.000 -400.000 -380.000 -360.000 -340.000 -320.000 -300.000 -280.000 -260.000 -240.000 -220.000 -200.000 -180.000 -160.000 -140.000 -120.000 -100.000 -80.000 -60.000 -40.000 -20.000 0.000
1460 -2500.000 -2480.000 -2460.000 -2440.000 -2420.000 -2400.000 -2380.000 -2360.000 -2340.000 -2320.000 -2300.000 -2280.000 -2260.000 -2240.000 -2220.000 -2200.000 -2180.000 -2160.000 -2140.000 -2120.000 -2100.000 -2080.000 -2060.000 -2040.000 -2020.000 -2000.000 -1980.000 -1960.000 -1940.000 -1920.000 -1900.000 -1880.000 -1860.000 -1840.000 -1820.000 -1800.000 -1780.000 -1760.000 -1740.000 -1720.000 -1700.000 -1680.000 -1660.000 -1640.000 -1620.000 -1600.000 -1580.000 -1560.000 -1540.000 -1520.000 -1500.000 -1480.000 -1460.000 -1440.000 -1420.000 -1400.000 -1380.000 -1360.000 -1340.000 -1320.000 -1300.000 -1280.000 -1260.000 -1240.000 -1220.000 -1200.000 -1180.000 -1160.000 -1140.000 -1120.000 -1100.000 -1080.000 -1060.000 -1040.000 -1020.000 -1000.000 -980.000 -960.000 -940.000 -920.000 -900.000 -880.000 -860.000 -840.000 -820.000 -800.000 -780.000 -760.000 -740.000 -720.000 -700.000 -680.000 -660.000 -640.000 -620.000 -600.000 -580.000 -560.000 -540.000 -520.000 -500.000 -480.000 -460.000 -440.000 -420.000 -400.000 -380.000 -360.000 -340.000 -320.000 -300.000 -280.000 -260.000 -240.000 -220.000 -200.000 -180.000 -160.000 -140.000 -120.000 -100.000 -80.000 -60.000 -40.000 -20.000 0.000
1480 -2500.000 -2480.000 -2460.000 -2440.000 -2420.000 -2400.000 -2380.000 -2360.000 -2340.000 -2320.000 -2300.000 -2280.000 -2260.000 -2240.000 -2220.000 -2200.000 -2180.000 -2160.000 -2140.000 -2120.000 -2100.000 -2080.000 -2060.000 -2040.000 -2020.000 -2000.000 -1980.000 -1960.000 -1940.000 -1920.000 -1900.000 -1880.000 -1860.000 -1840.000 -1820.000 -1800.000 -1780.000 -1760.000 -1740.000 -1720.000 -1700.000 -1680.000 -1660.000 -1640.000 -1620.000 -1600.000 -1580.000 -1560.000 -1540.000 -1520.000 -1500.000 -1480.000 -1460.000 -1440.000 -1420.000 -1400.000 -1380.000 -1360.000 -1340.000 -1320.000 -1300.000 -1280.000 -1260.000 -1240.000 -1220.000 -1200.000 -1180.000 -1160.000 -1140.000 -1120.000 -1100.000 -1080.000 -1060.000 -1040.000 -1020.000 -1000.000 -980.000 -960.000 -940.000 -920.000 -900.000 -880.000 -860.000 -840.000 -820.000 -800.000 -780.000 -760.000 -740.000 -720.000 -700.000 -680.000 -660.000 -640.000 -620.000 -600.000 -580.000 -560.000 -540.000 -520.000 -500.000 -480.000 -460.000 -440.000 -420.000 -400.000 -380.000 -360.000 -340.000 -320.000 -300.000 -280.000 -260.000 -240.000 -220.000 -200.000 -180.000 -160.000 -140.000 -120.000 -100.000 -80.000 -60.000 -40.000 -20.000 0.000
1500 -2500.000 -2480.000 -2460.000 -2440.000 -2420.000 -2400.000 -2380.000 -2360.000 -2340.000 -2320.000 -2300.000 -2280.000 -2260.000 -2240.000 -2220.000 -2200.000 -2180.000 -2160.000 -2140.000 -2120.000 -2100.000 -2080.000 -2060.000 -2040.000 -2020.000 -2000.000 -1980.000 -1960.000 -1940.000 -1920.000 -1900.000 -1880.000 -1860.000 -1840.000 -1820.000 -1800.000 -1780.000 -1760.000 -1740.000 -1720.000 -1700.000 -1680.000 -1660.000 -1640.000 -1620.000 -1600.000 -1580.000 -1560.000 -1540.000 -1520.000 -1500.000 -1480.000 -1460.000 -1440.000 -1420.000 -1400.000 -1380.000 -1360.000 -1340.000 -1320.000 -1300.000 -1280.000 -1260.000 -1240.000 -1220.000 -1200.000 -1180.000 -1160.000 -1140.000 -1120.000 -1100.000 -1080.000 -1060.000 -1040.000 -1020.000 -1000.000 -980.000 -960.000 -940.000 -920.000 -900.000 -880.000 -860.000 -840.000 -820.000 -800.000 -780.000 -760.000 -740.000 -720.000 -700.000 -680.000 -660.000 -640.000 -620.000 -600.000 -580.000 -560.000 -540.000 -520.000 -500.000 -480.000 -460.000 -440.000 -420.000 -400.000 -380.000 -360.000 -340.000 -320.000 -300.000 -280.000 -260.000 -240.000 -220.000 -200.000 -180.000 -160.000 -140.000 -120.000 -100.000 -80.000 -60.000 -40.000 -20.000 0.000
1520 -2500.000 -2480.000 -2460.000 -2440.000 -2420.000 -2400.000 -2380.000 -2360.000 -2340.000 -2320.000 -2300.000 -2280.000 -2260.000 -2240.000 -2220.000 -2200.000 -2180.000 -2160.000 -2140.000 -2120.000 -2100.000 -2080.000 -2060.000 -2040.000 -2020.000 -2000.000 -1980.000 -1960.000 -1940.000 -1920.000 -1900.000 -1880.000 -1860.000 -1840.000 -1820.000 -1800.000 -1780.000 -1760.000 -1740.000 -1720.000 -1700.000 -1680.000 -1660.000 -1640.000 -1620.000 -1600.000 -1580.000 -1560.000 -1540.000 -1520.000 -1500.000 -1480.000 -1460.000 -1440.000 -1420.000 -1400.000 -1380.000 -1360.000 -1340.000 -1320.000 -1300.000 -1280.000 -1260.000 -1240.000 -1220.000 -1200.000 -1180.000 -1160.000 -1140.000 -1120.000 -1100.000 -1080.000 -1060.000 -1040.000 -1020.000 -1000.000 -980.000 -960.000 -940.000 -920.000 -900.000 -880.000 -860.000 -840.000 -820.000 -800.000 -780.000 -760.000 -740.000 -720.000 -700.000 -680.000 -660.000 -640.000 -620.000 -600.000 -580.000 -560.000 -540.000 -520.000 -500.000 -480.000 -460.000 -440.000 -420.000 -400.000 -380.000 -360.000 -340.000 -320.000 -300.000 -280.000 -260.000 -240.000 -220.000 -200.000 -180.000 -160.000 -140.000 -120.000 -100.000 -80.000 -60.000 -40.000 -20.000 0.000
1540 -2500.000 -2480.000 -2460.000 -2440.000 -2420.000 -2400.000 -2380.000 -2360.000 -2340.000 -2320.000 -2300.000 -2280.000 -2260.000 -2240.000 -2220.000 -2200.000 -2180.000 -2160.000 -2140.000 -2120.000 -2100.000 -2080.000 -2060.000 -2040.000 -2020.000 -2000.000 -1980.000 -1960.000 -1940.000 -1920.000 -1900.000 -1880.000 -1860.000 -1840.000 -1820.000 -1800.000 -1780.000 -1760.000 -1740.000 -1720.000 -1700.000 -1680.000 -1660.000 -1640.000 -1620.000 -1600.000 -1580.000 -1560.000 -1540.000 -1520.000 -1500.000 -1480.000 -1460.000 -1440.000 -1420.000 -1400.000 -1380.000 -1360.000 -1340.000 -1320.000 -1300.000 -1280.000 -1260.000 -1240.000 -1220.000 -1200.000 -1180.000 -1160.000 -1140.000 -1120.000 -1100.000 -1080.000 -1060.000 -1040.000 -1020.000 -1000.000 -980.000 -960.000 -940.000 -920.000 -900.000 -880.000 -860.000 -840.000 -820.000 -800.000 -780.000 -760.000 -740.000 -720.000 -700.000 -680.000 -660.000 -640.000 -620.000 -600.000 -580.000 -560.000 -540.000 -520.000 -500.000 -480.000 -460.000 -440.000 -420.000 -400.000 -380.000 -360.000 -340.000 -320.000 -300.000 -280.000 -260.000 -240.000 -220.000 -200.000 -180.000 -160.000 -140.000 -120.000 -100.000 -80.000 -60.000 -40.000 -20.000 0.000
1560 -2500.000 -2480.000 -2460.000 -2440.000 -2420.000 -2400.000 -2380.000 -2360.000 -2340.000 -2320.000 -2300.000 -2280.000 -2260.000 -2240.000 -2220.000 -2200.000 -2180.000 -2160.000 -2140.000 -2120.000 -2100.000 -2080.000 -2060.000 -2040.000 -2020.000 -2000.000 -1980.000 -1960.000 -1940.000 -1920.000 -1900.000 -1880.000 -1860.000 -1840.000 -1820.000 -1800.000 -1780.000 -1760.000 -1740.000 -1720.000 -1700.000 -1680.000 -1660.000 -1640.000 -1620.000 -1600.000 -1580.000 -1560.000 -1540.000 -1520.000 -1500.000 -1480.000 -1460.000 -1440.000 -1420.000 -1400.000 -1380.000 -1360.000 -1340.000 -1320.000 -1300.000 -1280.000 -1260.000 -1240.000 -1220.000 -1200.000 -1180.000 -1160.000 -1140.000 -1120.000 -1100.000 -1080.000 -1060.000 -1040.000 -1020.000 -1000.000 -980.000 -960.000 -940.000 -920.000 -900.000 -880.000 -860.000 -840.000 -820.000 -800.000 -780.000 -760.000 -740.000 -720.000 -700.000 -680.000 -660.000 -640.000 -620.000 -600.000 -580.000 -560.000 -540.000 -520.000 -500.000 -480.000 -460.000 -440.000 -420.000 -400.000 -380.000 -360.000 -340.000 -320.000 -300.000 -280.000 -260.000 -240.000 -220.000 -200.000 -180.000 -160.000 -140.000 -120.000 -100.000 -80.000 -60.000 -40.000 -20.000 0.000
1580 -2500.000 -2480.000 -2460.000 -2440.000 -2420.000 -2400.000 -2380.000 -2360.000 -2340.000 -2320.000 -2300.000 -2280.000 -2260.000 -2240.000 -2220.000 -2200.000 -2180.000 -2160.000 -2140.000 -2120.000 -2100.000 -2080.000 -2060.000 -2040.000 -2020.000 -2000.000 -1980.000 -1960.000 -1940.000 -1920.000 -1900.000 -1880.000 -1860.000 -1840.000 -1820.000 -1800.000 -1780.000 -1760.000 -1740.000 -1720.000 -1700.000 -1680.000 -1660.000 -1640.000 -1620.000 -1600.000 -1580.000 -1560.000 -1540.000 -1520.000 -1500.000 -1480.000 -1460.000 -1440.000 -1420.000 -1400.000 -1380.000 -1360.000 -1340.000 -1320.000 -1300.000 -1280.000 -1260.000 -1240.000 -1220.000 -1200.000 -1180.000 -1160.000 -1140.000 -1120.000 -1100.000 -1080.000 -1060.000 -1040.000 -1020.000 -1000.000 -980.000 -960.000 -940.000 -920.000 -900.000 -880.000 -860.000 -840.000 -820.000 -800.000 -780.000 -760.000 -740.000 -720.000 -700.000 -680.000 -660.000 -640.000 -620.000 -600.000 -580.000 -560.000 -540.000 -520.000 -500.000 -480.000 -460.000 -440.000 -420.000 -400.000 -380.000 -360.000 -340.000 -320.000 -300.000 -280.000 -260.000 -240.000 -220.000 -200.000 -180.000 -160.000 -140.000 -120.000 -100.000 -80.000 -60.000 -40.000 -20.000 0.000
1600 -2500.000 -2480.000 -2460.000 -2440.000 -2420.000 -2400.000 -2380.000 -2360.000 -2340.000 -2320.000 -2300.000 -2280.000 -2260.000 -2240.000 -2220.000 -2200.000 -2180.000 -2160.000 -2140.000 -2120.000 -2100.000 -2080.000 -2060.000 -2040.000 -2020.000 -2000.000 -1980.000 -1960.000 -1940.000 -1920.000 -1900.000 -1880.000 -1860.000 -1840.000 -1820.000 -1800.000 -1780.000 -1760.000 -1740.000 -1720.000 -1700.000 -1680.000 -1660.000 -1640.000 -1620.000 -1600.000 -1580.000 -1560.000 -1540.000 -1520.000 -1500.000 -1480.000 -1460.000 -1440.000 -1420.000 -1400.000 -1380.000 -1360.000 -1340.000 -1320.000 -1300.000 -1280.000 -1260.000 -1240.000 -1220.000 -1200.000 -1180.000 -1160.000 -1140.000 -1120.000 -1100.000 -1080.000 -1060.000 -1040.000 -1020.000 -1000.000 -980.000 -960.000 -940.000 -920.000 -900.000 -880.000 -860.000 -840.000 -820.000 -800.000 -780.000 -760.000 -740.000 -720.000 -700.000 -680.000 -660.000 -640.000 -620.000 -600.000 -580.000 -560.000 -540.000 -520.000 -500.000 -480.000 -460.000 -440.000 -420.000 -400.000 -380.000 -360.000 -340.000 -320.000 -300.000 -280.000 -260.000 -240.000 -220.000 -200.000 -180.000 -160.000 -140.000 -120.000 -100.000 -80.000 -60.000 -40.000 -20.000 0.000
1620 -2500.000 -2480.000 -2460.000 -2440.000 -2420.000 -2400.000 -2380.000 -2360.000 -2340.000 -2320.000 -2300.000 -2280.000 -2260.000 -2240.000 -2220.000 -2200.000 -2180.000 -2160.000 -2140.000 -2120.000 -2100.000 -2080.000 -2060.000 -2040.000 -2020.000 -2000.000 -1980.000 -1960.000 -1940.000 -1920.000 -1900.000 -1880.000 -1860.000 -1840.000 -1820.000 -1800.000 -1780.000 -1760.000 -1740.000 -1720.000 -1700.000 -1680.000 -1660.000 -1640.000 -1620.000 -1600.000 -1580.000 -1560.000 -1540.000 -1520.000 -1500.000 -1480.000 -1460.000 -1440.000 -1420.000 -1400.000 -1380.000 -1360.000 -1340.000 -1320.000 -1300.000 -1280.000 -1260.000 -1240.000 -1220.000 -1200.000 -1180.000 -1160.000 -1140.000 -1120.000 -1100.000 -1080.000 -1060.000 -1040.000 -1020.000 -1000.000 -980.000 -960.000 -940.000 -920.000 -900.000 -880.000 -860.000 -840.000 -820.000 -800.000 -780.000 -760.000 -740.000 -720.000 -700.000 -680.000 -660.000 -640.000 -620.000 -600.000 -580.000 -560.000 -540.000 -520.000 -500.000 -480.000 -460.000 -440.000 -420.000 -400.000 -380.000 -360.000 -340.000 -320.000 -300.000 -280.000 -260.000 -240.000 -220.000 -200.000 -180.000 -160.000 -140.000 -120.000 -100.000 -80.000 -60.000 -40.000 -20.000 0.000
1640 -2500.000 -2480.000 -2460.000 -2440.000 -2420.000 -2400.000 -2380.000 -2360.000 -2340.000 -2320.000 -2300.000 -2280.000 -2260.000 -2240.000 -2220.000 -2200.000 -2180.000 -2160.000 -2140.000 -2120.000 -2100.000 -2080.000 -2060.000 -2040.000 -2020.000 -2000.000 -1980.000 -1960.000 -1940.000 -1920.000 -1900.000 -1880.000 -1860.000 -1840.000 -1820.000 -1800.000 -1780.000 -1760.000 -1740.000 -1720.000 -1700.000 -1680.000 -1660.000 -1640.000 -1620.000 -1600.000 -1580.000 -1560.000 -1540.000 -1520.000 -1500.000 -1480.000 -1460.000 -1440.000 -1420.000 -1400.000 -1380.000 -1360.000 -1340.000 -1320.000 -1300.000 -1280.000 -1260.000 -1240.000 -1220.000 -1200.000 -1180.000 -1160.000 -1140.000 -1120.000 -1100.000 -1080.000 -1060.000 -1040.000 -1020.000 -1000.000 -980.000 -960.000 -940.000 -920.000 -900.000 -880.000 -860.000 -840.000 -820.000 -800.000 -780.000 -760.000 -740.000 -720.000 -700.000 -680.000 -660.000 -640.000 -620.000 -600.000 -580.000 -560.000 -540.000 -520.000 -500.000 -480.000 -460.000 -440.000 -420.000 -400.000 -380.000 -360.000 -340.000 -320.000 -300.000 -280.000 -260.000 -240.000 -220.000 -200.000 -180.000 -160.000 -140.000 -120.000 -100.000 -80.000 -60.000 -40.000 -20.000 0.000
1660 -2500.000 -2480.000 -2460.000 -2440.000 -2420.000 -2400.000 -2380.000 -2360.000 -2340.000 -2320.000 -2300.000 -2280.000 -2260.000 -2240.000 -2220.000 -2200.000 -2180.000 -2160.000 -2140.000 -2120.000 -2100.000 -2080.000 -2060.000 -2040.000 -2020.000 -2000.000 -1980.000 -1960.000 -1940.000 -1920.000 -1900.000 -1880.000 -1860.000 -1840.000 -1820.000 -1800.000 -1780.000 -1760.000 -1740.000 -1720.000 -1700.000 -1680.000 -1660.000 -1640.000 -1620.000 -1600.000 -1580.000 -1560.000 -1540.000 -1520.000 -1500.000 -1480.000 -1460.000 -1440.000 -1420.000 -1400.000 -1380.000 -1360.000 -1340.000 -1320.000 -1300.000 -1280.000 -1260.000 -1240.000 -1220.000 -1200.000 -1180.000 -1160.000 -1140.000 -1120.000 -1100.000 -1080.000 -1060.000 -1040.000 -1020.000 -1000.000 -980.000 -960.000 -940.000 -920.000 -900.000 -880.000 -860.000 -840.000 -820.000 -800.000 -780.000 -760.000 -740.000 -720.000 -700.000 -680.000 -660.000 -640.000 -620.000 -600.000 -580.000 -560.000 -540.000 -520.000 -500.000 -480.000 -460.000 -440.000 -420.000 -400.000 -380.000 -360.000 -340.000 -320.000 -300.000 -280.000 -260.000 -240.000 -220.000 -200.000 -180.000 -160.000 -140.000 -120.000 -100.000 -80.000 -60.000 -40.000 -20.000 0.000
1680 -2500.000 -2480.000 -2460.000 -2440.000 -2420.000 -2400.000 -2380.000 -2360.000 -2340.000 -2320.000 -2300.000 -2280.000 -2260.000 -2240.000 -2220.000 -2200.000 -2180.000 -2160.000 -2140.000 -2120.000 -2100.000 -2080.000 -2060.000 -2040.000 -2020.000 -2000.000 -1980.000 -1960.000 -1940.000 -1920.000 -1900.000 -1880.000 -1860.000 -1840.000 -1820.000 -1800.000 -1780.000 -1760.000 -1740.000 -1720.000 -1700.000 -1680.000 -1660.000 -1640.000 -1620.000 -1600.000 -1580.000 -1560.000 -1540.000 -1520.000 -1500.000 -1480.000 -1460.000 -1440.000 -1420.000 -1400.000 -1380.000 -1360.000 -1340.000 -1320.000 -1300.000 -1280.000 -1260.000 -1240.000 -1220.000 -1200.000 -1180.000 -1160.000 -1140.000 -1120.000 -1100.000 -1080.000 -1060.000 -1040.000 -1020.000 -1000.000 -980.000 -960.000 -940.000 -920.000 -900.000 -880.000 -860.000 -840.000 -820.000 -800.000 -780.000 -760.000 -740.000 -720.000 -700.000 -680.000 -660.000 -640.000 -620.000 -600.000 -580.000 -560.000 -540.000 -520.000 -500.000 -480.000 -460.000 -440.000 -420.000 -400.000 -380.000 -360.000 -340.000 -320.000 -300.000 -280.000 -260.000 -240.000 -220.000 -200.000 -180.000 -160.000 -140.000 -120.000 -100.000 -80.000 -60.000 -40.000 -20.000 0.000
1700 -2500.000 -2480.000 -2460.000 -2440.000 -2420.000 -2400.000 -2380.000 -2360.000 -2340.000 -2320.000 -2300.000 -2280.000 -2260.000 -2240.000 -2220.000 -2200.000 -2180.000 -2160.000 -2140.000 -2120.000 -2100.000 -2080.000 -2060.000 -2040.000 -2020.000 -2000.000 -1980.000 -1960.000 -1940.000 -1920.000 -1900.000 -1880.000 -1860.000 -1840.000 -1820.000 -1800.000 -1780.000 -1760.000 -1740.000 -1720.000 -1700.000 -1680.000 -1660.000 -1640.000 -1620.000 -1600.000 -1580.000 -1560.000 -1540.000 -1520.000 -1500.000 -1480.000 -1460.000 -1440.000 -1420.000 -1400.000 -1380.000 -1360.000 -1340.000 -1320.000 -1300.000 -1280.000 -1260.000 -1240.000 -1220.000 -1200.000 -1180.000 -1160.000 -1140.000 -1120.000 -1100.000 -1080.000 -1060.000 -1040.000 -1020.000 -1000.000 -980.000 -960.000 -940.000 -920.000 -900.000 -880.000 -860.000 -840.000 -820.000 -800.000 -780.000 -760.000 -740.000 -720.000 -700.000 -680.000 -660.000 -640.000 -620.000 -600.000 -580.000 -560.000 -540.000 -520.000 -500.000 -480.000 -460.000 -440.000 -420.000 -400.000 -380.000 -360.000 -340.000 -320.000 -300.000 -280.000 -260.000 -240.000 -220.000 -200.000 -180.000 -160.000 -140.000 -120.000 -100.000 -80.000 -60.000 -40.000 -20.000 0.000
1720 -2500.000 -2480.000 -2460.000 -2440.000 -2420.000 -2400.000 -2380.000 -2360.000 -2340.000 -2320.000 -2300.000 -2280.000 -2260.000 -2240.000 -2220.000 -2200.000 -2180.000 -2160.000 -2140.000 -2120.000 -2100.000 -2080.000 -2060.000 -2040.000 -2020.000 -2000.000 -1980.000 -1960.000 -1940.000 -1920.000 -1900.000 -1880.000 -1860.000 -1840.000 -1820.000 -1800.000 -1780.000 -1760.000 -1740.000 -1720.000 -1700.000 -1680.000 -1660.000 -1640.000 -1620.000 -1600.000 -1580.000 -1560.000 -1540.000 -1520.000 -1500.000 -1480.000 -1460.000 -1440.000 -1420.000 -1400.000 -1380.000 -1360.000 -1340.000 -1320.000 -1300.000 -1280.000 -1260.000 -1240.000 -1220.000 -1200.000 -1180.000 -1160.000 -1140.000 -1120.000 -1100.000 -1080.000 -1060.000 -1040.000 -1020.000 -1000.000 -980.000 -960.000 -940.000 -920.000 -900.000 -880.000 -860.000 -840.000 -820.000 -800.000 -780.000 -760.000 -740.000 -720.000 -700.000 -680.000 -660.000 -640.000 -620.000 -600.000 -580.000 -560.000 -540.000 -520.000 -500.000 -480.000 -460.000 -440.000 -420.000 -400.000 -380.000 -360.000 -340.000 -320.000 -300.000 -280.000 -260.000 -240.000 -220.000 -200.000 -180.000 -160.000 -140.000 -120.000 -100.000 -80.000 -60.000 -40.000 -20.000 0.000
1740 -2500.000 -2480.000 -2460.000 -2440.000 -2420.000 -2400.000 -2380.000 -2360.000 -2340.000 -2320.000 -2300.000 -2280.000 -2260.000 -2240.000 -2220.000 -2200.000 -2180.000 -2160.000 -2140.000 -2120.000 -2100.000 -2080.000 -2060.000 -2040.000 -2020.000 -2000.000 -1980.000 -1960.000 -1940.000 -1920.000 -1900.000 -1880.000 -1860.000 -1840.000 -1820.000 -1800.000 -1780.000 -1760.000 -1740.000 -1720.000 -1700.000 -1680.000 -1660.000 -1640.000 -1620.000 -1600.000 -1580.000 -1560.000 -1540.000 -1520.000 -1500.000 -1480.000 -1460.000 -1440.000 -1420.000 -1400.000 -1380.000 -1360.000 -1340.000 -1320.000 -1300.000 -1280.000 -1260.000 -1240.000 -1220.000 -1200.000 -1180.000 -1160.000 -1140.000 -1120.000 -1100.000 -1080.000 -1060.000 -1040.000 -1020.000 -1000.000 -980.000 -960.000 -940.000 -920.000 -900.000 -880.000 -860.000 -840.000 -820.000 -800.000 -780.000 -760.000 -740.000 -720.000 -700.000 -680.000 -660.000 -640.000 -620.000 -600.000 -580.000 -560.000 -540.000 -520.000 -500.000 -480.000 -460.000 -440.000 -420.000 -400.000 -380.000 -360.000 -340.000 -320.000 -300.000 -280.000 -260.000 -240.000 -220.000 -200.000 -180.000 -160.000 -140.000 -120.000 -100.000 -80.000 -60.000 -40.000 -20.000 0.000
1760 -2500.000 -2480.000 -2460.000 -2440.000 -2420.000 -2400.000 -2380.000 -2360.000 -2340.000 -2320.000 -2300.000 -2280.000 -2260.000 -2240.000 -2220.000 -2200.000 -2180.000 -2160.000 -2140.000 -2120.000 -2100.000 -2080.000 -2060.000 -2040.000 -2020.000 -2000.000 -1980.000 -1960.000 -1940.000 -1920.000 -1900.000 -1880.000 -1860.000 -1840.000 -1820.000 -1800.000 -1780.000 -1760.000 -1740.000 -1720.000 -1700.000 -1680.000 -1660.000 -1640.000 -1620.000 -1600.000 -1580.000 -1560.000 -1540.000 -1520.000 -1500.000 -1480.000 -1460.000 -1440.000 -1420.000 -1400.000 -1380.000 -1360.000 -1340.000 -1320.000 -1300.000 -1280.000 -1260.000 -1240.000 -1220.000 -1200.000 -1180.000 -1160.000 -1140.000 -1120.000 -1100.000 -1080.000 -1060.000 -1040.000 -1020.000 -1000.000 -980.000 -960.000 -940.000 -920.000 -900.000 -880.000 -860.000 -840.000 -820.000 -800.000 -780.000 -760.000 -740.000 -720.000 -700.000 -680.000 -660.000 -640.000 -620.000 -600.000 -580.000 -560.000 -540.000 -520.000 -500.000 -480.000 -460.000 -440.000 -420.000 -400.000 -380.000 -360.000 -340.000 -320.000 -300.000 -280.000 -260.000 -240.000 -220.000 -200.000 -180.000 -160.000 -140.000 -120.000 -100.000 -80.000 -60.000 -40.000 -20.000 0.000
1780 -2500.000 -2480.000 -2460.000 -2440.000 -2420.000 -2400.000 -2380.000 -2360.000 -2340.000 -2320.000 -2300.000 -2280.000 -2260.000 -2240.000 -2220.000 -2200.000 -2180.000 -2160.000 -2140.000 -2120.000 -2100.000 -2080.000 -2060.000 -2040.000 -2020.000 -2000.000 -1980.000 -1960.000 -1940.000 -1920.000 -1900.000 -1880.000 -1860.000 -1840.000 -1820.000 -1800.000 -1780.000 -1760.000 -1740.000 -1720.000 -1700.000 -1680.000 -1660.000 -1640.000 -1620.000 -1600.000 -1580.000 -1560.000 -1540.000 -1520.000 -1500.000 -1480.000 -1460.000 -1440.000 -1420.000 -1400.000 -1380.000 -1360.000 -1340.000 -1320.000 -1300.000 -1280.000 -1260.000 -1240.000 -1220.000 -1200.000 -1180.000 -1160.000 -1140.000 -1120.000 -1100.000 -1080.000 -1060.000 -1040.000 -1020.000 -1000.000 -980.000 -960.000 -940.000 -920.000 -900.000 -880.000 -860.000 -840.000 -820.000 -800.000 -780.000 -760.000 -740.000 -720.000 -700.000 -680.000 -660.000 -640.000 -620.000 -600.000 -580.000 -560.000 -540.000 -520.000 -500.000 -480.000 -460.000 -440.000 -420.000 -400.000 -380.000 -360.000 -340.000 -320.000 -300.000 -280.000 -260.000 -240.000 -220.000 -200.000 -180.000 -160.000 -140.000 -120.000 -100.000 -80.000 -60.000 -40.000 -20.000 0.000
1800 -2500.000 -2480.000 -2460.000 -2440.000 -2420.000 -2400.000 -2380.000 -2360.000 -2340.000 -2320.000 -2300.000 -2280.000 -2260.000 -2240.000 -2220.000 -2200.000 -2180.000 -2160.000 -2140.000 -2120.000 -2100.000 -2080.000 -2060.000 -2040.000 -2020.000 -2000.000 -1980.000 -1960.000 -1940.000 -1920.000 -1900.000 -1880.000 -1860.000 -1840.000 -1820.000 -1800.000 -1780.000 -1760.000 -1740.000 -1720.000 -1700.000 -1680.000 -1660.000 -1640.000 -1620.000 -1600.000 -1580.000 -1560.000 -1540.000 -1520.000 -1500.000 -1480.000 -1460.000 -1440.000 -1420.000 -1400.000 -1380.000 -1360.000 -1340.000 -1320.000 -1300.000 -1280.000 -1260.000 -1240.000 -1220.000 -1200.000 -1180.000 -1160.000 -1140.000 -1120.000 -1100.000 -1080.000 -1060.000 -1040.000 -1020.000 -1000.000 -980.000 -960.000 -940.000 -920.000 -900.000 -880.000 -860.000 -840.000 -820.000 -800.000 -780.000 -760.000 -740.000 -720.000 -700.000 -680.000 -660.000 -640.000 -620.000 -600.000 -580.000 -560.000 -540.000 -520.000 -500.000 -480.000 -460.000 -440.000 -420.000 -400.000 -380.000 -360.000 -340.000 -320.000 -300.000 -280.000 -260.000 -240.000 -220.000 -200.000 -180.000 -160.000 -140.000 -120.000 -100.000 -80.000 -60.000 -40.000 -20.000 0.000
1820 -2500.000 -2480.000 -2460.000 -2440.000 -2420.000 -2400.000 -2380.000 -2360.000 -2340.000 -2320.000 -2300.000 -2280.000 -2260.000 -2240.000 -2220.000 -2200.000 -2180.000 -2160.000 -2140.000 -2120.000 -2100.000 -2080.000 -2060.000 -2040.000 -2020.000 -2000.000 -1980.000 -1960.000 -1940.000 -1920.000 -1900.000 -1880.000 -1860.000 -1840.000 -1820.000 -1800.000 -1780.000 -1760.000 -1740.000 -1720.000 -1700.000 -1680.000 -1660.000 -1640.000 -1620.000 -1600.000 -1580.000 -1560.000 -1540.000 -1520.000 -1500.000 -1480.000 -1460.000 -1440.000 -1420.000 -1400.000 -1380.000 -1360.000 -1340.000 -1320.000 -1300.000 -1280.000 -1260.000 -1240.000 -1220.000 -1200.000 -1180.000 -1160.000 -1140.000 -1120.000 -1100.000 -1080.000 -1060.000 -1040.000 -1020.000 -1000.000 -980.000 -960.000 -940.000 -920.000 -900.000 -880.000 -860.000 -840.000 -820.000 -800.000 -780.000 -760.000 -740.000 -720.000 -700.000 -680.000 -660.000 -640.000 -620.000 -600.000 -580.000 -560.000 -540.000 -520.000 -500.000 -480.000 -460.000 -440.000 -420.000 -400.000 -380.000 -360.000 -340.000 -320.000 -300.000 -280.000 -260.000 -240.000 -220.000 -200.000 -180.000 -160.000 -140.000 -120.000 -100.000 -80.000 -60.000 -40.000 -20.000 0.000
1840 -2500.000 -2480.000 -2460.000 -2440.000 -2420.000 -2400.000 -2380.000 -2360.000 -2340.000 -2320.000 -2300.000 -2280.000 -2260.000 -2240.000 -2220.000 -2200.000 -2180.000 -2160.000 -2140.000 -2120.000 -2100.000 -2080.000 -2060.000 -2040.000 -2020.000 -2000.000 -1980.000 -1960.000 -1940.000 -1920.000 -1900.000 -1880.000 -1860.000 -1840.000 -1820.000 -1800.000 -1780.000 -1760.000 -1740.000 -1720.000 -1700.000 -1680.000 -1660.000 -1640.000 -1620.000 -1600.000 -1580.000 -1560.000 -1540.000 -1520.000 -1500.000 -1480.000 -1460.000 -1440.000 -1420.000 -1400.000 -1380.000 -1360.000 -1340.000 -1320.000 -1300.000 -1280.000 -1260.000 -1240.000 -1220.000 -1200.000 -1180.000 -1160.000 -1140.000 -1120.000 -1100.000 -1080.000 -1060.000 -1040.000 -1020.000 -1000.000 -980.000 -960.000 -940.000 -920.000 -900.000 -880.000 -860.000 -840.000 -820.000 -800.000 -780.000 -760.000 -740.000 -720.000 -700.000 -680.000 -660.000 -640.000 -620.000 -600.000 -580.000 -560.000 -540.000 -520.000 -500.000 -480.000 -460.000 -440.000 -420.000 -400.000 -380.000 -360.000 -340.000 -320.000 -300.000 -280.000 -260.000 -240.000 -220.000 -200.000 -180.000 -160.000 -140.000 -120.000 -100.000 -80.000 -60.000 -40.000 -20.000 0.000
1860 -2500.000 -2480.000 -2460.000 -2440.000 -2420.000 -2400.000 -2380.000 -2360.000 -2340.000 -2320.000 -2300.000 -2280.000 -2260.000 -2240.000 -2220.000 -2200.000 -2180.000 -2160.000 -2140.000 -2120.000 -2100.000 -2080.000 -2060.000 -2040.000 -2020.000 -2000.000 -1980.000 -1960.000 -1940.000 -1920.000 -1900.000 -1880.000 -1860.000 -1840.000 -1820.000 -1800.000 -1780.000 -1760.000 -1740.000 -1720.000 -1700.000 -1680.000 -1660.000 -1640.000 -1620.000 -1600.000 -1580.000 -1560.000 -1540.000 -1520.000 -1500.000 -1480.000 -1460.000 -1440.000 -1420.000 -1400.000 -1380.000 -1360.000 -1340.000 -1320.000 -1300.000 -1280.000 -1260.000 -1240.000 -1220.000 -1200.000 -1180.000 -1160.000 -1140.000 -1120.000 -1100.000 -1080.000 -1060.000 -1040.000 -1020.000 -1000.000 -980.000 -960.000 -940.000 -920.000 -900.000 -880.000 -860.000 -840.000 -820.000 -800.000 -780.000 -760.000 -740.000 -720.000 -700.000 -680.000 -660.000 -640.000 -620.000 -600.000 -580.000 -560.000 -540.000 -520.000 -500.000 -480.000 -460.000 -440.000 -420.000 -400.000 -380.000 -360.000 -340.000 -320.000 -300.000 -280.000 -260.000 -240.000 -220.000 -200.000 -180.000 -160.000 -140.000 -120.000 -100.000 -80.000 -60.000 -40.000 -20.000 0.000
1880 -2500.000 -2480.000 -2460.000 -2440.000 -2420.000 -2400.000 -2380.000 -2360.000 -2340.000 -2320.000 -2300.000 -2280.000 -2260.000 -2240.000 -2220.000 -2200.000 -2180.000 -2160.000 -2140.000 -2120.000 -2100.000 -2080.000 -2060.000 -2040.000 -2020.000 -2000.000 -1980.000 -1960.000 -1940.000 -1920.000 -1900.000 -1880.000 -1860.000 -1840.000 -1820.000 -1800.000 -1780.000 -1760.000 -1740.000 -1720.000 -1700.000 -1680.000 -1660.000 -1640.000 -1620.000 -1600.000 -1580.000 -1560.000 -1540.000 -1520.000 -1500.000 -1480.000 -1460.000 -1440.000 -1420.000 -1400.000 -1380.000 -1360.000 -1340.000 -1320.000 -1300.000 -1280.000 -1260.000 -1240.000 -1220.000 -1200.000 -1180.000 -1160.000 -1140.000 -1120.000 -1100.000 -1080.000 -1060.000 -1040.000 -1020.000 -1000.000 -980.000 -960.000 -940.000 -920.000 -900.000 -880.000 -860.000 -840.000 -820.000 -800.000 -780.000 -760.000 -740.000 -720.000 -700.000 -680.000 -660.000 -640.000 -620.000 -600.000 -580.000 -560.000 -540.000 -520.000 -500.000 -480.000 -460.000 -440.000 -420.000 -400.000 -380.000 -360.000 -340.000 -320.000 -300.000 -280.000 -260.000 -240.000 -220.000 -200.000 -180.000 -160.000 -140.000 -120.000 -100.000 -80.000 -60.000 -40.000 -20.000 0.000
1900 -2500.000 -2480.000 -2460.000 -2440.000 -2420.000 -2400.000 -2380.000 -2360.000 -2340.000 -2320.000 -2300.000 -2280.000 -2260.000 -2240.000 -2220.000 -2200.000 -2180.000 -2160.000 -2140.000 -2120.000 -2100.000 -2080.000 -2060.000 -2040.000 -2020.000 -2000.000 -1980.000 -1960.000 -1940.000 -1920.000 -1900.000 -1880.000 -1860.000 -1840.000 -1820.000 -1800.000 -1780.000 -1760.000 -1740.000 -1720.000 -1700.000 -1680.000 -1660.000 -1640.000 -1620.000 -1600.000 -1580.000 -1560.000 -1540.000 -1520.000 -1500.000 -1480.000 -1460.000 -1440.000 -1420.000 -1400.000 -1380.000 -1360.000 -1340.000 -1320.000 -1300.000 -1280.000 -1260.000 -1240.000 -1220.000 -1200.000 -1180.000 -1160.000 -1140.000 -1120.000 -1100.000 -1080.000 -1060.000 -1040.000 -1020.000 -1000.000 -980.000 -960.000 -940.000 -920.000 -900.000 -880.000 -860.000 -840.000 -820.000 -800.000 -780.000 -760.000 -740.000 -720.000 -700.000 -680.000 -660.000 -640.000 -620.000 -600.000 -580.000 -560.000 -540.000 -520.000 -500.000 -480.000 -460.000 -440.000 -420.000 -400.000 -380.000 -360.000 -340.000 -320.000 -300.000 -280.000 -260.000 -240.000 -220.000 -200.000 -180.000 -160.000 -140.000 -120.000 -100.000 -80.000 -60.000 -40.000 -20.000 0.000
1920 -2500.000 -2480.000 -2460.000 -2440.000 -2420.000 -2400.000 -2380.000 -2360.000 -2340.000 -2320.000 -2300.000 -2280.000 -2260.000 -2240.000 -2220.000 -2200.000 -2180.000 -2160.000 -2140.000 -2120.000 -2100.000 -2080.000 -2060.000 -2040.000 -2020.000 -2000.000 -1980.000 -1960.000 -1940.000 -1920.000 -1900.000 -1880.000 -1860.000 -1840.000 -1820.000 -1800.000 -1780.000 -1760.000 -1740.000 -1720.000 -1700.000 -1680.000 -1660.000 -1640.000 -1620.000 -1600.000 -1580.000 -1560.000 -1540.000 -1520.000 -1500.000 -1480.000 -1460.000 -1440.000 -1420.000 -1400.000 -1380.000 -1360.000 -1340.000 -1320.000 -1300.000 -1280.000 -1260.000 -1240.000 -1220.000 -1200.000 -1180.000 -1160.000 -1140.000 -1120.000 -1100.000 -1080.000 -1060.000 -1040.000 -1020.000 -1000.000 -980.000 -960.000 -940.000 -920.000 -900.000 -880.000 -860.000 -840.000 -820.000 -800.000 -780.000 -760.000 -740.000 -720.000 -700.000 -680.000 -660.000 -640.000 -620.000 -600.000 -580.000 -560.000 -540.000 -520.000 -500.000 -480.000 -460.000 -440.000 -420.000 -400.000 -380.000 -360.000 -340.000 -320.000 -300.000 -280.000 -260.000 -240.000 -220.000 -200.000 -180.000 -160.000 -140.000 -120.000 -100.000 -80.000 -60.000 -40.000 -20.000 0.000
1940 -2500.000 -2480.000 -2460.000 -2440.000 -2420.000 -2400.000 -2380.000 -2360.000 -2340.000 -2320.000 -2300.000 -2280.000 -2260.000 -2240.000 -2220.000 -2200.000 -2180.000 -2160.000 -2140.000 -2120.000 -2100.000 -2080.000 -2060.000 -2040.000 -2020.000 -2000.000 -1980.000 -1960.000 -1940.000 -1920.000 -1900.000 -1880.000 -1860.000 -1840.000 -1820.000 -1800.000 -1780.000 -1760.000 -1740.000 -1720.000 -1700.000 -1680.000 -1660.000 -1640.000 -1620.000 -1600.000 -1580.000 -1560.000 -1540.000 -1520.000 -1500.000 -1480.000 -1460.000 -1440.000 -1420.000 -1400.000 -1380.000 -1360.000 -1340.000 -1320.000 -1300.000 -1280.000 -1260.000 -1240.000 -1220.000 -1200.000 -1180.000 -1160.000 -1140.000 -1120.000 -1100.000 -1080.000 -1060.000 -1040.000 -1020.000 -1000.000 -980.000 -960.000 -940.000 -920.000 -900.000 -880.000 -860.000 -840.000 -820.000 -800.000 -780.000 -760.000 -740.000 -720.000 -700.000 -680.000 -660.000 -640.000 -620.000 -600.000 -580.000 -560.000 -540.000 -520.000 -500.000 -480.000 -460.000 -440.000 -420.000 -400.000 -380.000 -360.000 -340.000 -320.000 -300.000 -280.000 -260.000 -240.000 -220.000 -200.000 -180.000 -160.000 -140.000 -120.000 -100.000 -80.000 -60.000 -40.000 -20.000 0.000
1960 -2500.000 -2480.000 -2460.000 -2440.000 -2420.000 -2400.000 -2380.000 -2360.000 -2340.000 -2320.000 -2300.000 -2280.000 -2260.000 -2240.000 -2220.000 -2200.000 -2180.000 -2160.000 -2140.000 -2120.000 -2100.000 -2080.000 -2060.000 -2040.000 -2020.000 -2000.000 -1980.000 -1960.000 -1940.000 -1920.000 -1900.000 -1880.000 -1860.000 -1840.000 -1820.000 -1800.000 -1780.000 -1760.000 -1740.000 -1720.000 -1700.000 -1680.000 -1660.000 -1640.000 -1620.000 -1600.000 -1580.000 -1560.000 -1540.000 -1520.000 -1500.000 -1480.000 -1460.000 -1440.000 -1420.000 -1400.000 -1380.000 -1360.000 -1340.000 -1320.000 -1300.000 -1280.000 -1260.000 -1240.000 -1220.000 -1200.000 -1180.000 -1160.000 -1140.000 -1120.000 -1100.000 -1080.000 -1060.000 -1040.000 -1020.000 -1000.000 -980.000 -960.000 -940.000 -920.000 -900.000 -880.000 -860.000 -840.000 -820.000 -800.000 -780.000 -760.000 -740.000 -720.000 -700.000 -680.000 -660.000 -640.000 -620.000 -600.000 -580.000 -560.000 -540.000 -520.000 -500.000 -480.000 -460.000 -440.000 -420.000 -400.000 -380.000 -360.000 -340.000 -320.000 -300.000 -280.000 -260.000 -240.000 -220.000 -200.000 -180.000 -160.000 -140.000 -120.000 -100.000 -80.000 -60.000 -40.000 -20.000 0.000
1980 -2500.000 -2480.000 -2460.000 -2440.000 -2420.000 -2400.000 -2380.000 -2360.000 -2340.000 -2320.000 -2300.000 -2280.000 -2260.000 -2240.000 -2220.000 -2200.000 -2180.000 -2160.000 -2140.000 -2120.000 -2100.000 -2080.000 -2060.000 -2040.000 -2020.000 -2000.000 -1980.000 -1960.000 -1940.000 -1920.000 -1900.000 -1880.000 -1860.000 -1840.000 -1820.000 -1800.000 -1780.000 -1760.000 -1740.000 -1720.000 -1700.000 -1680.000 -1660.000 -1640.000 -1620.000 -1600.000 -1580.000 -1560.000 -1540.000 -1520.000 -1500.000 -1480.000 -1460.000 -1440.000 -1420.000 -1400.000 -1380.000 -1360.000 -1340.000 -1320.000 -1300.000 -1280.000 -1260.000 -1240.000 -1220.000 -1200.000 -1180.000 -1160.000 -1140.000 -1120.000 -1100.000 -1080.000 -1060.000 -1040.000 -1020.000 -1000.000 -980.000 -960.000 -940.000 -920.000 -900.000 -880.000 -860.000 -840.000 -820.000 -800.000 -780.000 -760.000 -740.000 -720.000 -700.000 -680.000 -660.000 -640.000 -620.000 -600.000 -580.000 -560.000 -540.000 -520.000 -500.000 -480.000 -460.000 -440.000 -420.000 -400.000 -380.000 -360.000 -340.000 -320.000 -300.000 -280.000 -260.000 -240.000 -220.000 -200.000 -180.000 -160.000 -140.000 -120.000 -100.000 -80.000 -60.000 -40.000 -20.000 0.000
2000 -2500.000 -2480.000 -2460.000 -2440.000 -2420.000 -2400.000 -2380.000 -2360.000 -2340.000 -2320.000 -2300.000 -2280.000 -2260.000 -2240.000 -2220.000 -2200.000 -2180.000 -2160.000 -2140.000 -2120.000 -2100.000 -2080.000 -2060.000 -2040.000 -2020.000 -2000.000 -1980.000 -1960.000 -1940.000 -1920.000 -1900.000 -1880.000 -1860.000 -1840.000 -1820.000 -1800.000 -1780.000 -1760.000 -1740.000 -1720.000 -1700.000 -1680.000 -1660.000 -1640.000 -1620.000 -1600.000 -1580.000 -1560.000 -1540.000 -1520.000 -1500.000 -1480.000 -1460.000 -1440.000 -1420.000 -1400.000 -1380.000 -1360.000 -1340.000 -1320.000 -1300.000 -1280.000 -1260.000 -1240.000 -1220.000 -1200.000 -1180.000 -1160.000 -1140.000 -1120.000 -1100.000 -1080.000 -1060.000 -1040.000 -1020.000 -1000.000 -980.000 -960.000 -940.000 -920.000 -900.000 -880.000 -860.000 -840.000 -820.000 -800.000 -780.000 -760.000 -740.000 -720.000 -700.000 -680.000 -660.000 -640.000 -620.000 -600.000 -580.000 -560.000 -540.000 -520.000 -500.000 -480.000 -460.000 -440.000 -420.000 -400.000 -380.000 -360.000 -340.000 -320.000 -300.000 -280.000 -260.000 -240.000 -220.000 -200.000 -180.000 -160.000 -140.000 -120.000 -100.000 -80.000 -60.000 -40.000 -20.000 0.000
2020 -2500.000 -2480.000 -2460.000 -2440.000 -2420.000 -2400.000 -2380.000 -2360.000 -2340.000 -2320.000 -2300.000 -2280.000 -2260.000 -2240.000 -2220.000 -2200.000 -2180.000 -2160.000 -2140.000 -2120.000 -2100.000 -2080.000 -2060.000 -2040.000 -2020.000 -2000.000 -1980.000 -1960.000 -1940.000 -1920.000 -1900.000 -1880.000 -1860.000 -1840.000 -1820.000 -1800.000 -1780.000 -1760.000 -1740.000 -1720.000 -1700.000 -1680.000 -1660.000 -1640.000 -1620.000 -1600.000 -1580.000 -1560.000 -1540.000 -1520.000 -1500.000 -1480.000 -1460.000 -1440.000 -1420.000 -1400.000 -1380.000 -1360.000 -1340.000 -1320.000 -1300.000 -1280.000 -1260.000 -1240.000 -1220.000 -1200.000 -1180.000 -1160.000 -1140.000 -1120.000 -1100.000 -1080.000 -1060.000 -1040.000 -1020.000 -1000.000 -980.000 -960.000 -940.000 -920.000 -900.000 -880.000 -860.000 -840.000 -820.000 -800.000 -780.000 -760.000 -740.000 -720.000 -700.000 -680.000 -660.000 -640.000 -620.000 -600.000 -580.000 -560.000 -540.000 -520.000 -500.000 -480.000 -460.000 -440.000 -420.000 -400.000 -380.000 -360.000 -340.000 -320.000 -300.000 -280.000 -260.000 -240.000 -220.000 -200.000 -180.000 -160.000 -140.000 -120.000 -100.000 -80.000 -60.000 -40.000 -20.000 0.000
2040 -2500.000 -2480.000 -2460.000 -2440.000 -2420.000 -2400.000 -2380.000 -2360.000 -2340.000 -2320.000 -2300.000 -2280.000 -2260.000 -2240.000 -2220.000 -2200.000 -2180.000 -2160.000 -2140.000 -2120.000 -2100.000 -2080.000 -2060.000 -2040.000 -2020.000 -2000.000 -1980.000 -1960.000 -1940.000 -1920.000 -1900.000 -1880.000 -1860.000 -1840.000 -1820.000 -1800.000 -1780.000 -1760.000 -1740.000 -1720.000 -1700.000 -1680.000 -1660.000 -1640.000 -1620.000 -1600.000 -1580.000 -1560.000 -1540.000 -1520.000 -1500.000 -1480.000 -1460.000 -1440.000 -1420.000 -1400.000 -1380.000 -1360.000 -1340.000 -1320.000 -1300.000 -1280.000 -1260.000 -1240.000 -1220.000 -1200.000 -1180.000 -1160.000 -1140.000 -1120.000 -1100.000 -1080.000 -1060.000 -1040.000 -1020.000 -1000.000 -980.000 -960.000 -940.000 -920.000 -900.000 -880.000 -860.000 -840.000 -820.000 -800.000 -780.000 -760.000 -740.000 -720.000 -700.000 -680.000 -660.000 -640.000 -620.000 -600.000 -580.000 -560.000 -540.000 -520.000 -500.000 -480.000 -460.000 -440.000 -420.000 -400.000 -380.000 -360.000 -340.000 -320.000 -300.000 -280.000 -260.000 -240.000 -220.000 -200.000 -180.000 -160.000 -140.000 -120.000 -100.000 -80.000 -60.000 -40.000 -20.000 0.000
2060 -2500.000 -2480.000 -2460.000 -2440.000 -2420.000 -2400.000 -2380.000 -2360.000 -2340.000 -2320.000 -2300.000 -2280.000 -2260.000 -2240.000 -2220.000 -2200.000 -2180.000 -2160.000 -2140.000 -2120.000 -2100.000 -2080.000 -2060.000 -2040.000 -2020.000 -2000.000 -1980.000 -1960.000 -1940.000 -1920.000 -1900.000 -1880.000 -1860.000 -1840.000 -1820.000 -1800.000 -1780.000 -1760.000 -1740.000 -1720.000 -1700.000 -1680.000 -1660.000 -1640.000 -1620.000 -1600.000 -1580.000 -1560.000 -1540.000 -1520.000 -1500.000 -1480.000 -1460.000 -1440.000 -1420.000 -1400.000 -1380.000 -1360.000 -1340.000 -1320.000 -1300.000 -1280.000 -1260.000 -1240.000 -1220.000 -1200.000 -1180.000 -1160.000 -1140.000 -1120.000 -1100.000 -1080.000 -1060.000 -1040.000 -1020.000 -1000.000 -980.000 -960.000 -940.000 -920.000 -900.000 -880.000 -860.000 -840.000 -820.000 -800.000 -780.000 -760.000 -740.000 -720.000 -700.000 -680.000 -660.000 -640.000 -620.000 -600.000 -580.000 -560.000 -540.000 -520.000 -500.000 -480.000 -460.000 -440.000 -420.000 -400.000 -380.000 -360.000 -340.000 -320.000 -300.000 -280.000 -260.000 -240.000 -220.000 -200.000 -180.000 -160.000 -140.000 -120.000 -100.000 -80.000 -60.000 -40.000 -20.000 0.000
2080 -2500.000 -2480.000 -2460.000 -2440.000 -2420.000 -2400.000 -2380.000 -2360.000 -2340.000 -2320.000 -2300.000 -2280.000 -2260.000 -2240.000 -2220.000 -2200.000 -2180.000 -2160.000 -2140.000 -2120.000 -2100.000 -2080.000 -2060.000 -2040.000 -2020.000 -2000.000 -1980.000 -1960.000 -1940.000 -1920.000 -1900.000 -1880.000 -1860.000 -1840.000 -1820.000 -1800.000 -1780.000 -1760.000 -1740.000 -1720.000 -1700.000 -1680.000 -1660.000 -1640.000 -1620.000 -1600.000 -1580.000 -1560.000 -1540.000 -1520.000 -1500.000 -1480.000 -1460.000 -1440.000 -1420.000 -1400.000 -1380.000 -1360.000 -1340.000 -1320.000 -1300.000 -1280.000 -1260.000 -1240.000 -1220.000 -1200.000 -1180.000 -1160.000 -1140.000 -1120.000 -1100.000 -1080.000 -1060.000 -1040.000 -1020.000 -1000.000 -980.000 -960.000 -940.000 -920.000 -900.000 -880.000 -860.000 -840.000 -820.000 -800.000 -780.000 -760.000 -740.000 -720.000 -700.000 -680.000 -660.000 -640.000 -620.000 -600.000 -580.000 -560.000 -540.000 -520.000 -500.000 -480.000 -460.000 -440.000 -420.000 -400.000 -380.000 -360.000 -340.000 -320.000 -300.000 -280.000 -260.000 -240.000 -220.000 -200.000 -180.000 -160.000 -140.000 -120.000 -100.000 -80.000 -60.000 -40.000 -20.000 0.000
2100 -2500.000 -2480.000 -2460.000 -2440.000 -2420.000 -2400.000 -2380.000 -2360.000 -2340.000 -2320.000 -2300.000 -2280.000 -2260.000 -2240.000 -2220.000 -2200.000 -2180.000 -2160.000 -2140.000 -2120.000 -2100.000 -2080.000 -2060.000 -2040.000 -2020.000 -2000.000 -1980.000 -1960.000 -1940.000 -1920.000 -1900.000 -1880.000 -1860.000 -1840.000 -1820.000 -1800.000 -1780.000 -1760.000 -1740.000 -1720.000 -1700.000 -1680.000 -1660.000 -1640.000 -1620.000 -1600.000 -1580.000 -1560.000 -1540.000 -1520.000 -1500.000 -1480.000 -1460.000 -1440.000 -1420.000 -1400.000 -1380.000 -1360.000 -1340.000 -1320.000 -1300.000 -1280.000 -1260.000 -1240.000 -1220.000 -1200.000 -1180.000 -1160.000 -1140.000 -1120.000 -1100.000 -1080.000 -1060.000 -1040.000 -1020.000 -1000.000 -980.000 -960.000 -940.000 -920.000 -900.000 -880.000 -860.000 -840.000 -820.000 -800.000 -780.000 -760.000 -740.000 -720.000 -700.000 -680.000 -660.000 -640.000 -620.000 -600.000 -580.000 -560.000 -540.000 -520.000 -500.000 -480.000 -460.000 -440.000 -420.000 -400.000 -380.000 -360.000 -340.000 -320.000 -300.000 -280.000 -260.000 -240.000 -220.000 -200.000 -180.000 -160.000 -140.000 -120.000 -100.000 -80.000 -60.000 -40.000 -20.000 0.000
2120 -2500.000 -2480.000 -2460.000 -2440.000 -2420.000 -2400.000 -2380.000 -2360.000 -2340.000 -2320.000 -2300.000 -2280.000 -2260.000 -2240.000 -2220.000 -2200.000 -2180.000 -2160.000 -2140.000 -2120.000 -2100.000 -2080.000 -2060.000 -2040.000 -2020.000 -2000.000 -1980.000 -1960.000 -1940.000 -1920.000 -1900.000 -1880.000 -1860.000 -1840.000 -1820.000 -1800.000 -1780.000 -1760.000 -1740.000 -1720.000 -1700.000 -1680.000 -1660.000 -1640.000 -1620.000 -1600.000 -1580.000 -1560.000 -1540.000 -1520.000 -1500.000 -1480.000 -1460.000 -1440.000 -1420.000 -1400.000 -1380.000 -1360.000 -1340.000 -1320.000 -1300.000 -1280.000 -1260.000 -1240.000 -1220.000 -1200.000 -1180.000 -1160.000 -1140.000 -1120.000 -1100.000 -1080.000 -1060.000 -1040.000 -1020.000 -1000.000 -980.000 -960.000 -940.000 -920.000 -900.000 -880.000 -860.000 -840.000 -820.000 -800.000 -780.000 -760.000 -740.000 -720.000 -700.000 -680.000 -660.000 -640.000 -620.000 -600.000 -580.000 -560.000 -540.000 -520.000 -500.000 -480.000 -460.000 -440.000 -420.000 -400.000 -380.000 -360.000 -340.000 -320.000 -300.000 -280.000 -260.000 -240.000 -220.000 -200.000 -180.000 -160.000 -140.000 -120.000 -100.000 -80.000 -60.000 -40.000 -20.000 0.000
2140 -2500.000 -2480.000 -2460.000 -2440.000 -2420.000 -2400.000 -2380.000 -2360.000 -2340.000 -2320.000 -2300.000 -2280.000 -2260.000 -2240.000 -2220.000 -2200.000 -2180.000 -2160.000 -2140.000 -2120.000 -2100.000 -2080.000 -2060.000 -2040.000 -2020.000 -2000.000 -1980.000 -1960.000 -1940.000 -1920.000 -1900.000 -1880.000 -1860.000 -1840.000 -1820.000 -1800.000 -1780.000 -1760.000 -1740.000 -1720.000 -1700.000 -1680.000 -1660.000 -1640.000 -1620.000 -1600.000 -1580.000 -1560.000 -1540.000 -1520.000 -1500.000 -1480.000 -1460.000 -1440.000 -1420.000 -1400.000 -1380.000 -1360.000 -1340.000 -1320.000 -1300.000 -1280.000 -1260.000 -1240.000 -1220.000 -1200.000 -1180.000 -1160.000 -1140.000 -1120.000 -1100.000 -1080.000 -1060.000 -1040.000 -1020.000 -1000.000 -980.000 -960.000 -940.000 -920.000 -900.000 -880.000 -860.000 -840.000 -820.000 -800.000 -780.000 -760.000 -740.000 -720.000 -700.000 -680.000 -660.000 -640.000 -620.000 -600.000 -580.000 -560.000 -540.000 -520.000 -500.000 -480.000 -460.000 -440.000 -420.000 -400.000 -380.000 -360.000 -340.000 -320.000 -300.000 -280.000 -260.000 -240.000 -220.000 -200.000 -180.000 -160.000 -140.000 -120.000 -100.000 -80.000 -60.000 -40.000 -20.000 0.000
2160 -2500.000 -2480.000 -2460.000 -2440.000 -2420.000 -2400.000 -2380.000 -2360.000 -2340.000 -2320.000 -2300.000 -2280.000 -2260.000 -2240.000 -2220.000 -2200.000 -2180.000 -2160.000 -2140.000 -2120.000 -2100.000 -2080.000 -2060.000 -2040.000 -2020.000 -2000.000 -1980.000 -1960.000 -1940.000 -1920.000 -1900.000 -1880.000 -1860.000 -1840.000 -1820.000 -1800.000 -1780.000 -1760.000 -1740.000 -1720.000 -1700.000 -1680.000 -1660.000 -1640.000 -1620.000 -1600.000 -1580.000 -1560.000 -1540.000 -1520.000 -1500.000 -1480.000 -1460.000 -1440.000 -1420.000 -1400.000 -1380.000 -1360.000 -1340.000 -1320.000 -1300.000 -1280.000 -1260.000 -1240.000 -1220.000 -1200.000 -1180.000 -1160.000 -1140.000 -1120.000 -1100.000 -1080.000 -1060.000 -1040.000 -1020.000 -1000.000 -980.000 -960.000 -940.000 -920.000 -900.000 -880.000 -860.000 -840.000 -820.000 -800.000 -780.000 -760.000 -740.000 -720.000 -700.000 -680.000 -660.000 -640.000 -620.000 -600.000 -580.000 -560.000 -540.000 -520.000 -500.000 -480.000 -460.000 -440.000 -420.000 -400.000 -380.000 -360.000 -340.000 -320.000 -300.000 -280.000 -260.000 -240.000 -220.000 -200.000 -180.000 -160.000 -140.000 -120.000 -100.000 -80.000 -60.000 -40.000 -20.000 0.000
2180 -2500.000 -2480.000 -2460.000 -2440.000 -2420.000 -2400.000 -2380.000 -2360.000 -2340.000 -2320.000 -2300.000 -2280.000 -2260.000 -2240.000 -2220.000 -2200.000 -2180.000 -2160.000 -2140.000 -2120.000 -2100.000 -2080.000 -2060.000 -2040.000 -2020.000 -2000.000 -1980.000 -1960.000 -1940.000 -1920.000 -1900.000 -1880.000 -1860.000 -1840.000 -1820.000 -1800.000 -1780.000 -1760.000 -1740.000 -1720.000 -1700.000 -1680.000 -1660.000 -1640.000 -1620.000 -1600.000 -1580.000 -1560.000 -1540.000 -1520.000 -1500.000 -1480.000 -1460.000 -1440.000 -1420.000 -1400.000 -1380.000 -1360.000 -1340.000 -1320.000 -1300.000 -1280.000 -1260.000 -1240.000 -1220.000 -1200.000 -1180.000 -1160.000 -1140.000 -1120.000 -1100.000 -1080.000 -1060.000 -1040.000 -1020.000 -1000.000 -980.000 -960.000 -940.000 -920.000 -900.000 -880.000 -860.000 -840.000 -820.000 -800.000 -780.000 -760.000 -740.000 -720.000 -700.000 -680.000 -660.000 -640.000 -620.000 -600.000 -580.000 -560.000 -540.000 -520.000 -500.000 -480.000 -460.000 -440.000 -420.000 -400.000 -380.000 -360.000 -340.000 -320.000 -300.000 -280.000 -260.000 -240.000 -220.000 -200.000 -180.000 -160.000 -140.000 -120.000 -100.000 -80.000 -60.000 -40.000 -20.000 0.000
2200 -2500.000 -2480.000 -2460.000 -2440.000 -2420.000 -2400.000 -2380.000 -2360.000 -2340.000 -2320.000 -2300.000 -2280.000 -2260.000 -2240.000 -2220.000 -2200.000 -2180.000 -2160.000 -2140.000 -2120.000 -2100.000 -2080.000 -2060.000 -2040.000 -2020.000 -2000.000 -1980.000 -1960.000 -1940.000 -1920.000 -1900.000 -1880.000 -1860.000 -1840.000 -1820.000 -1800.000 -1780.000 -1760.000 -1740.000 -1720.000 -1700.000 -1680.000 -1660.000 -1640.000 -1620.000 -1600.000 -1580.000 -1560.000 -1540.000 -1520.000 -1500.000 -1480.000 -1460.000 -1440.000 -1420.000 -1400.000 -1380.000 -1360.000 -1340.000 -1320.000 -1300.000 -1280.000 -1260.000 -1240.000 -1220.000 -1200.000 -1180.000 -1160.000 -1140.000 -1120.000 -1100.000 -1080.000 -1060.000 -1040.000 -1020.000 -1000.000 -980.000 -960.000 -940.000 -920.000 -900.000 -880.000 -860.000 -840.000 -820.000 -800.000 -780.000 -760.000 -740.000 -720.000 -700.000 -680.000 -660.000 -640.000 -620.000 -600.000 -580.000 -560.000 -540.000 -520.000 -500.000 -480.000 -460.000 -440.000 -420.000 -400.000 -380.000 -360.000 -340.000 -320.000 -300.000 -280.000 -260.000 -240.000 -220.000 -200.000 -180.000 -160.000 -140.000 -120.000 -100.000 -80.000 -60.000 -40.000 -20.000 0.000
2220 -2500.000 -2480.000 -2460.000 -2440.000 -2420.000 -2400.000 -2380.000 -2360.000 -2340.000 -2320.000 -2300.000 -2280.000 -2260.000 -2240.000 -2220.000 -2200.000 -2180.000 -2160.000 -2140.000 -2120.000 -2100.000 -2080.000 -2060.000 -2040.000 -2020.000 -2000.000 -1980.000 -1960.000 -1940.000 -1920.000 -1900.000 -1880.000 -1860.000 -1840.000 -1820.000 -1800.000 -1780.000 -1760.000 -1740.000 -1720.000 -1700.000 -1680.000 -1660.000 -1640.000 -1620.000 -1600.000 -1580.000 -1560.000 -1540.000 -1520.000 -1500.000 -1480.000 -1460.000 -1440.000 -1420.000 -1400.000 -1380.000 -1360.000 -1340.000 -1320.000 -1300.000 -1280.000 -1260.000 -1240.000 -1220.000 -1200.000 -1180.000 -1160.000 -1140.000 -1120.000 -1100.000 -1080.000 -1060.000 -1040.000 -1020.000 -1000.000 -980.000 -960.000 -940.000 -920.000 -900.000 -880.000 -860.000 -840.000 -820.000 -800.000 -780.000 -760.000 -740.000 -720.000 -700.000 -680.000 -660.000 -640.000 -620.000 -600.000 -580.000 -560.000 -540.000 -520.000 -500.000 -480.000 -460.000 -440.000 -420.000 -400.000 -380.000 -360.000 -340.000 -320.000 -300.000 -280.000 -260.000 -240.000 -220.000 -200.000 -180.000 -160.000 -140.000 -120.000 -100.000 -80.000 -60.000 -40.000 -20.000 0.000
2240 -2500.000 -2480.000 -2460.000 -2440.000 -2420.000 -2400.000 -2380.000 -2360.000 -2340.000 -2320.000 -2300.000 -2280.000 -2260.000 -2240.000 -2220.000 -2200.000 -2180.000 -2160.000 -2140.000 -2120.000 -2100.000 -2080.000 -2060.000 -2040.000 -2020.000 -2000.000 -1980.000 -1960.000 -1940.000 -1920.000 -1900.000 -1880.000 -1860.000 -1840.000 -1820.000 -1800.000 -1780.000 -1760.000 -1740.000 -1720.000 -1700.000 -1680.000 -1660.000 -1640.000 -1620.000 -1600.000 -1580.000 -1560.000 -1540.000 -1520.000 -1500.000 -1480.000 -1460.000 -1440.000 -1420.000 -1400.000 -1380.000 -1360.000 -1340.000 -1320.000 -1300.000 -1280.000 -1260.000 -1240.000 -1220.000 -1200.000 -1180.000 -1160.000 -1140.000 -1120.000 -1100.000 -1080.000 -1060.000 -1040.000 -1020.000 -1000.000 -980.000 -960.000 -940.000 -920.000 -900.000 -880.000 -860.000 -840.000 -820.000 -800.000 -780.000 -760.000 -740.000 -720.000 -700.000 -680.000 -660.000 -640.000 -620.000 -600.000 -580.000 -560.000 -540.000 -520.000 -500.000 -480.000 -460.000 -440.000 -420.000 -400.000 -380.000 -360.000 -340.000 -320.000 -300.000 -280.000 -260.000 -240.000 -220.000 -200.000 -180.000 -160.000 -140.000 -120.000 -100.000 -80.000 -60.000 -40.000 -20.000 0.000
2260 -2500.000 -2480.000 -2460.000 -2440.000 -2420.000 -2400.000 -2380.000 -2360.000 -2340.000 -2320.000 -2300.000 -2280.000 -2260.000 -2240.000 -2220.000 -2200.000 -2180.000 -2160.000 -2140.000 -2120.000 -2100.000 -2080.000 -2060.000 -2040.000 -2020.000 -2000.000 -1980.000 -1960.000 -1940.000 -1920.000 -1900.000 -1880.000 -1860.000 -1840.000 -1820.000 -1800.000 -1780.000 -1760.000 -1740.000 -1720.000 -1700.000 -1680.000 -1660.000 -1640.000 -1620.000 -1600.000 -1580.000 -1560.000 -1540.000 -1520.000 -1500.000 -1480.000 -1460.000 -1440.000 -1420.000 -1400.000 -1380.000 -1360.000 -1340.000 -1320.000 -1300.000 -1280.000 -1260.000 -1240.000 -1220.000 -1200.000 -1180.000 -1160.000 -1140.000 -1120.000 -1100.000 -1080.000 -1060.000 -1040.000 -1020.000 -1000.000 -980.000 -960.000 -940.000 -920.000 -900.000 -880.000 -860.000 -840.000 -820.000 -800.000 -780.000 -760.000 -740.000 -720.000 -700.000 -680.000 -660.000 -640.000 -620.000 -600.000 -580.000 -560.000 -540.000 -520.000 -500.000 -480.000 -460.000 -440.000 -420.000 -400.000 -380.000 -360.000 -340.000 -320.000 -300.000 -280.000 -260.000 -240.000 -220.000 -200.000 -180.000 -160.000 -140.000 -120.000 -100.000 -80.000 -60.000 -40.000 -20.000 0.000
2280 -2500.000 -2480.000 -2460.000 -2440.000 -2420.000 -2400.000 -2380.000 -2360.000 -2340.000 -2320.000 -2300.000 -2280.000 -2260.000 -2240.000 -2220.000 -2200.000 -2180.000 -2160.000 -2140.000 -2120.000 -2100.000 -2080.000 -2060.000 -2040.000 -2020.000 -2000.000 -1980.000 -1960.000 -1940.000 -1920.000 -1900.000 -1880.000 -1860.000 -1840.000 -1820.000 -1800.000 -1780.000 -1760.000 -1740.000 -1720.000 -1700.000 -1680.000 -1660.000 -1640.000 -1620.000 -1600.000 -1580.000 -1560.000 -1540.000 -1520.000 -1500.000 -1480.000 -1460.000 -1440.000 -1420.000 -1400.000 -1380.000 -1360.000 -1340.000 -1320.000 -1300.000 -1280.000 -1260.000 -1240.000 -1220.000 -1200.000 -1180.000 -1160.000 -1140.000 -1120.000 -1100.000 -1080.000 -1060.000 -1040.000 -1020.000 -1000.000 -980.000 -960.000 -940.000 -920.000 -900.000 -880.000 -860.000 -840.000 -820.000 -800.000 -780.000 -760.000 -740.000 -720.000 -700.000 -680.000 -660.000 -640.000 -620.000 -600.000 -580.000 -560.000 -540.000 -520.000 -500.000 -480.000 -460.000 -440.000 -420.000 -400.000 -380.000 -360.000 -340.000 -320.000 -300.000 -280.000 -260.000 -240.000 -220.000 -200.000 -180.000 -160.000 -140.000 -120.000 -100.000 -80.000 -60.000 -40.000 -20.000 0.000
2300 -2500.000 -2480.000 -2460.000 -2440.000 -2420.000 -2400.000 -2380.000 -2360.000 -2340.000 -2320.000 -2300.000 -2280.000 -2260.000 -2240.000 -2220.000 -2200.000 -2180.000 -2160.000 -2140.000 -2120.000 -2100.000 -2080.000 -2060.000 -2040.000 -2020.000 -2000.000 -1980.000 -1960.000 -1940.000 -1920.000 -1900.000 -1880.000 -1860.000 -1840.000 -1820.000 -1800.000 -1780.000 -1760.000 -1740.000 -1720.000 -1700.000 -1680.000 -1660.000 -1640.000 -1620.000 -1600.000 -1580.000 -1560.000 -1540.000 -1520.000 -1500.000 -1480.000 -1460.000 -1440.000 -1420.000 -1400.000 -1380.000 -1360.000 -1340.000 -1320.000 -1300.000 -1280.000 -1260.000 -1240.000 -1220.000 -1200.000 -1180.000 -1160.000 -1140.000 -1120.000 -1100.000 -1080.000 -1060.000 -1040.000 -1020.000 -1000.000 -980.000 -960.000 -940.000 -920.000 -900.000 -880.000 -860.000 -840.000 -820.000 -800.000 -780.000 -760.000 -740.000 -720.000 -700.000 -680.000 -660.000 -640.000 -620.000 -600.000 -580.000 -560.000 -540.000 -520.000 -500.000 -480.000 -460.000 -440.000 -420.000 -400.000 -380.000 -360.000 -340.000 -320.000 -300.000 -280.000 -260.000 -240.000 -220.000 -200.000 -180.000 -160.000 -140.000 -120.000 -100.000 -80.000 -60.000 -40.000 -20.000 0.000
2320 -2500.000 -2480.000 -2460.000 -2440.000 -2420.000 -2400.000 -2380.000 -2360.000 -2340.000 -2320.000 -2300.000 -2280.000 -2260.000 -2240.000 -2220.000 -2200.000 -2180.000 -2160.000 -2140.000 -2120.000 -2100.000 -2080.000 -2060.000 -2040.000 -2020.000 -2000.000 -1980.000 -1960.000 -1940.000 -1920.000 -1900.000 -1880.000 -1860.000 -1840.000 -1820.000 -1800.000 -1780.000 -1760.000 -1740.000 -1720.000 -1700.000 -1680.000 -1660.000 -1640.000 -1620.000 -1600.000 -1580.000 -1560.000 -1540.000 -1520.000 -1500.000 -1480.000 -1460.000 -1440.000 -1420.000 -1400.000 -1380.000 -1360.000 -1340.000 -1320.000 -1300.000 -1280.000 -1260.000 -1240.000 -1220.000 -1200.000 -1180.000 -1160.000 -1140.000 -1120.000 -1100.000 -1080.000 -1060.000 -1040.000 -1020.000 -1000.000 -980.000 -960.000 -940.000 -920.000 -900.000 -880.000 -860.000 -840.000 -820.000 -800.000 -780.000 -760.000 -740.000 -720.000 -700.000 -680.000 -660.000 -640.000 -620.000 -600.000 -580.000 -560.000 -540.000 -520.000 -500.000 -480.000 -460.000 -440.000 -420.000 -400.000 -380.000 -360.000 -340.000 -320.000 -300.000 -280.000 -260.000 -240.000 -220.000 -200.000 -180.000 -160.000 -140.000 -120.000 -100.000 -80.000 -60.000 -40.000 -20.000 0.000
2340 -2500.000 -2480.000 -2460.000 -2440.000 -2420.000 -2400.000 -2380.000 -2360.000 -2340.000 -2320.000 -2300.000 -2280.000 -2260.000 -2240.000 -2220.000 -2200.000 -2180.000 -2160.000 -2140.000 -2120.000 -2100.000 -2080.000 -2060.000 -2040.000 -2020.000 -2000.000 -1980.000 -1960.000 -1940.000 -1920.000 -1900.000 -1880.000 -1860.000 -1840.000 -1820.000 -1800.000 -1780.000 -1760.000 -1740.000 -1720.000 -1700.000 -1680.000 -1660.000 -1640.000 -1620.000 -1600.000 -1580.000 -1560.000 -1540.000 -1520.000 -1500.000 -1480.000 -1460.000 -1440.000 -1420.000 -1400.000 -1380.000 -1360.000 -1340.000 -1320.000 -1300.000 -1280.000 -1260.000 -1240.000 -1220.000 -1200.000 -1180.000 -1160.000 -1140.000 -1120.000 -1100.000 -1080.000 -1060.000 -1040.000 -1020.000 -1000.000 -980.000 -960.000 -940.000 -920.000 -900.000 -880.000 -860.000 -840.000 -820.000 -800.000 -780.000 -760.000 -740.000 -720.000 -700.000 -680.000 -660.000 -640.000 -620.000 -600.000 -580.000 -560.000 -540.000 -520.000 -500.000 -480.000 -460.000 -440.000 -420.000 -400.000 -380.000 -360.000 -340.000 -320.000 -300.000 -280.000 -260.000 -240.000 -220.000 -200.000 -180.000 -160.000 -140.000 -120.000 -100.000 -80.000 -60.000 -40.000 -20.000 0.000
2360 -2500.000 -2480.000 -2460.000 -2440.000 -2420.000 -2400.000 -2380.000 -2360.000 -2340.000 -2320.000 -2300.000 -2280.000 -2260.000 -2240.000 -2220.000 -2200.000 -2180.000 -2160.000 -2140.000 -2120.000 -2100.000 -2080.000 -2060.000 -2040.000 -2020.000 -2000.000 -1980.000 -1960.000 -1940.000 -1920.000 -1900.000 -1880.000 -1860.000 -1840.000 -1820.000 -1800.000 -1780.000 -1760.000 -1740.000 -1720.000 -1700.000 -1680.000 -1660.000 -1640.000 -1620.000 -1600.000 -1580.000 -1560.000 -1540.000 -1520.000 -1500.000 -1480.000 -1460.000 -1440.000 -1420.000 -1400.000 -1380.000 -1360.000 -1340.000 -1320.000 -1300.000 -1280.000 -1260.000 -1240.000 -1220.000 -1200.000 -1180.000 -1160.000 -1140.000 -1120.000 -1100.000 -1080.000 -1060.000 -1040.000 -1020.000 -1000.000 -980.000 -960.000 -940.000 -920.000 -900.000 -880.000 -860.000 -840.000 -820.000 -800.000 -780.000 -760.000 -740.000 -720.000 -700.000 -680.000 -660.000 -640.000 -620.000 -600.000 -580.000 -560.000 -540.000 -520.000 -500.000 -480.000 -460.000 -440.000 -420.000 -400.000 -380.000 -360.000 -340.000 -320.000 -300.000 -280.000 -260.000 -240.000 -220.000 -200.000 -180.000 -160.000 -140.000 -120.000 -100.000 -80.000 -60.000 -40.000 -20.000 0.000
2380 -2500.000 -2480.000 -2460.000 -2440.000 -2420.000 -2400.000 -2380.000 -2360.000 -2340.000 -2320.000 -2300.000 -2280.000 -2260.000 -2240.000 -2220.000 -2200.000 -2180.000 -2160.000 -2140.000 -2120.000 -2100.000 -2080.000 -2060.000 -2040.000 -2020.000 -2000.000 -1980.000 -1960.000 -1940.000 -1920.000 -1900.000 -1880.000 -1860.000 -1840.000 -1820.000 -1800.000 -1780.000 -1760.000 -1740.000 -1720.000 -1700.000 -1680.000 -1660.000 -1640.000 -1620.000 -1600.000 -1580.000 -1560.000 -1540.000 -1520.000 -1500.000 -1480.000 -1460.000 -1440.000 -1420.000 -1400.000 -1380.000 -1360.000 -1340.000 -1320.000 -1300.000 -1280.000 -1260.000 -1240.000 -1220.000 -1200.000 -1180.000 -1160.000 -1140.000 -1120.000 -1100.000 -1080.000 -1060.000 -1040.000 -1020.000 -1000.000 -980.000 -960.000 -940.000 -920.000 -900.000 -880.000 -860.000 -840.000 -820.000 -800.000 -780.000 -760.000 -740.000 -720.000 -700.000 -680.000 -660.000 -640.000 -620.000 -600.000 -580.000 -560.000 -540.000 -520.000 -500.000 -480.000 -460.000 -440.000 -420.000 -400.000 -380.000 -360.000 -340.000 -320.000 -300.000 -280.000 -260.000 -240.000 -220.000 -200.000 -180.000 -160.000 -140.000 -120.000 -100.000 -80.000 -60.000 -40.000 -20.000 0.000
2400 -2500.000 -2480.000 -2460.000 -2440.000 -2420.000 -2400.000 -2380.000 -2360.000 -2340.000 -2320.000 -2300.000 -2280.000 -2260.000 -2240.000 -2220.000 -2200.000 -2180.000 -2160.000 -2140.000 -2120.000 -2100.000 -2080.000 -2060.000 -2040.000 -2020.000 -2000.000 -1980.000 -1960.000 -1940.000 -1920.000 -1900.000 -1880.000 -1860.000 -1840.000 -1820.000 -1800.000 -1780.000 -1760.000 -1740.000 -1720.000 -1700.000 -1680.000 -1660.000 -1640.000 -1620.000 -1600.000 -1580.000 -1560.000 -1540.000 -1520.000 -1500.000 -1480.000 -1460.000 -1440.000 -1420.000 -1400.000 -1380.000 -1360.000 -1340.000 -1320.000 -1300.000 -1280.000 -1260.000 -1240.000 -1220.000 -1200.000 -1180.000 -1160.000 -1140.000 -1120.000 -1100.000 -1080.000 -1060.000 -1040.000 -1020.000 -1000.000 -980.000 -960.000 -940.000 -920.000 -900.000 -880.000 -860.000 -840.000 -820.000 -800.000 -780.000 -760.000 -740.000 -720.000 -700.000 -680.000 -660.000 -640.000 -620.000 -600.000 -580.000 -560.000 -540.000 -520.000 -500.000 -480.000 -460.000 -440.000 -420.000 -400.000 -380.000 -360.000 -340.000 -320.000 -300.000 -280.000 -260.000 -240.000 -220.000 -200.000 -180.000 -160.000 -140.000 -120.000 -100.000 -80.000 -60.000 -40.000 -20.000 0.000
2420 -2500.000 -2480.000 -2460.000 -2440.000 -2420.000 -2400.000 -2380.000 -2360.000 -2340.000 -2320.000 -2300.000 -2280.000 -2260.000 -2240.000 -2220.000 -2200.000 -2180.000 -2160.000 -2140.000 -2120.000 -2100.000 -2080.000 -2060.000 -2040.000 -2020.000 -2000.000 -1980.000 -1960.000 -1940.000 -1920.000 -1900.000 -1880.000 -1860.000 -1840.000 -1820.000 -1800.000 -1780.000 -1760.000 -1740.000 -1720.000 -1700.000 -1680.000 -1660.000 -1640.000 -1620.000 -1600.000 -1580.000 -1560.000 -1540.000 -1520.000 -1500.000 -1480.000 -1460.000 -1440.000 -1420.000 -1400.000 -1380.000 -1360.000 -1340.000 -1320.000 -1300.000 -1280.000 -1260.000 -1240.000 -1220.000 -1200.000 -1180.000 -1160.000 -1140.000 -1120.000 -1100.000 -1080.000 -1060.000 -1040.000 -1020.000 -1000.000 -980.000 -960.000 -940.000 -920.000 -900.000 -880.000 -860.000 -840.000 -820.000 -800.000 -780.000 -760.000 -740.000 -720.000 -700.000 -680.000 -660.000 -640.000 -620.000 -600.000 -580.000 -560.000 -540.000 -520.000 -500.000 -480.000 -460.000 -440.000 -420.000 -400.000 -380.000 -360.000 -340.000 -320.000 -300.000 -280.000 -260.000 -240.000 -220.000 -200.000 -180.000 -160.000 -140.000 -120.000 -100.000 -80.000 -60.000 -40.000 -20.000 0.000
2440 -2500.000 -2480.000 -2460.000 -2440.000 -2420.000 -2400.000 -2380.000 -2360.000 -2340.000 -2320.000 -2300.000 -2280.000 -2260.000 -2240.000 -2220.000 -2200.000 -2180.000 -2160.000 -2140.000 -2120.000 -2100.000 -2080.000 -2060.000 -2040.000 -2020.000 -2000.000 -1980.000 -1960.000 -1940.000 -1920.000 -1900.000 -1880.000 -1860.000 -1840.000 -1820.000 -1800.000 -1780.000 -1760.000 -1740.000 -1720.000 -1700.000 -1680.000 -1660.000 -1640.000 -1620.000 -1600.000 -1580.000 -1560.000 -1540.000 -1520.000 -1500.000 -1480.000 -1460.000 -1440.000 -1420.000 -1400.000 -1380.000 -1360.000 -1340.000 -1320.000 -1300.000 -1280.000 -1260.000 -1240.000 -1220.000 -1200.000 -1180.000 -1160.000 -1140.000 -1120.000 -1100.000 -1080.000 -1060.000 -1040.000 -1020.000 -1000.000 -980.000 -960.000 -940.000 -920.000 -900.000 -880.000 -860.000 -840.000 -820.000 -800.000 -780.000 -760.000 -740.000 -720.000 -700.000 -680.000 -660.000 -640.000 -620.000 -600.000 -580.000 -560.000 -540.000 -520.000 -500.000 -480.000 -460.000 -440.000 -420.000 -400.000 -380.000 -360.000 -340.000 -320.000 -300.000 -280.000 -260.000 -240.000 -220.000 -200.000 -180.000 -160.000 -140.000 -120.000 -100.000 -80.000 -60.000 -40.000 -20.000 0.000
2460 -2500.000 -2480.000 -2460.000 -2440.000 -2420.000 -2400.000 -2380.000 -2360.000 -2340.000 -2320.000 -2300.000 -2280.000 -2260.000 -2240.000 -2220.000 -2200.000 -2180.000 -2160.000 -2140.000 -2120.000 -2100.000 -2080.000 -2060.000 -2040.000 -2020.000 -2000.000 -1980.000 -1960.000 -1940.000 -1920.000 -1900.000 -1880.000 -1860.000 -1840.000 -1820.000 -1800.000 -1780.000 -1760.000 -1740.000 -1720.000 -1700.000 -1680.000 -1660.000 -1640.000 -1620.000 -1600.000 -1580.000 -1560.000 -1540.000 -1520.000 -1500.000 -1480.000 -1460.000 -1440.000 -1420.000 -1400.000 -1380.000 -1360.000 -1340.000 -1320.000 -1300.000 -1280.000 -1260.000 -1240.000 -1220.000 -1200.000 -1180.000 -1160.000 -1140.000 -1120.000 -1100.000 -1080.000 -1060.000 -1040.000 -1020.000 -1000.000 -980.000 -960.000 -940.000 -920.000 -900.000 -880.000 -860.000 -840.000 -820.000 -800.000 -780.000 -760.000 -740.000 -720.000 -700.000 -680.000 -660.000 -640.000 -620.000 -600.000 -580.000 -560.000 -540.000 -520.000 -500.000 -480.000 -460.000 -440.000 -420.000 -400.000 -380.000 -360.000 -340.000 -320.000 -300.000 -280.000 -260.000 -240.000 -220.000 -200.000 -180.000 -160.000 -140.000 -120.000 -100.000 -80.000 -60.000 -40.000 -20.000 0.000
2480 -2500.000 -2480.000 -2460.000 -2440.000 -2420.000 -2400.000 -2380.000 -2360.000 -2340.000 -2320.000 -2300.000 -2280.000 -2260.000 -2240.000 -2220.000 -2200.000 -2180.000 -2160.000 -2140.000 -2120.000 -2100.000 -2080.000 -2060.000 -2040.000 -2020.000 -2000.000 -1980.000 -1960.000 -1940.000 -1920.000 -1900.000 -1880.000 -1860.000 -1840.000 -1820.000 -1800.000 -1780.000 -1760.000 -1740.000 -1720.000 -1700.000 -1680.000 -1660.000 -1640.000 -1620.000 -1600.000 -1580.000 -1560.000 -1540.000 -1520.000 -1500.000 -1480.000 -1460.000 -1440.000 -1420.000 -1400.000 -1380.000 -1360.000 -1340.000 -1320.000 -1300.000 -1280.000 -1260.000 -1240.000 -1220.000 -1200.000 -1180.000 -1160.000 -1140.000 -1120.000 -1100.000 -1080.000 -1060.000 -1040.000 -1020.000 -1000.000 -980.000 -960.000 -940.000 -920.000 -900.000 -880.000 -860.000 -840.000 -820.000 -800.000 -780.000 -760.000 -740.000 -720.000 -700.000 -680.000 -660.000 -640.000 -620.000 -600.000 -580.000 -560.000 -540.000 -520.000 -500.000 -480.000 -460.000 -440.000 -420.000 -400.000 -380.000 -360.000 -340.000 -320.000 -300.000 -280.000 -260.000 -240.000 -220.000 -200.000 -180.000 -160.000 -140.000 -120.000 -100.000 -80.000 -60.000 -40.000 -20.000 0.000
2500 -2500.000 -2480.000 -2460.000 -2440.000 -2420.000 -2400.000 -2380.000 -2360.000 -2340.000 -2320.000 -2300.000 -2280.000 -2260.000 -2240.000 -2220.000 -2200.000 -2180.000 -2160.000 -2140.000 -2120.000 -2100.000 -2080.000 -2060.000 -2040.000 -2020.000 -2000.000 -1980.000 -1960.000 -1940.000 -1920.000 -1900.000 -1880.000 -1860.000 -1840.000 -1820.000 -1800.000 -1780.000 -1760.000 -1740.000 -1720.000 -1700.000 -1680.000 -1660.000 -1640.000 -1620.000 -1600.000 -1580.000 -1560.000 -1540.000 -1520.000 -1500.000 -1480.000 -1460.000 -1440.000 -1420.000 -1400.000 -1380.000 -1360.000 -1340.000 -1320.000 -1300.000 -1280.000 -1260.000 -1240.000 -1220.000 -1200.000 -1180.000 -1160.000 -1140.000 -1120.000 -1100.000 -1080.000 -1060.000 -1040.000 -1020.000 -1000.000 -980.000 -960.000 -940.000 -920.000 -900.000 -880.000 -860.000 -840.000 -820.000 -800.000 -780.000 -760.000 -740.000 -720.000 -700.000 -680.000 -660.000 -640.000 -620.000 -600.000 -580.000 -560.000 -540.000 -520.000 -500.000 -480.000 -460.000 -440.000 -420.000 -400.000 -380.000 -360.000 -340.000 -320.000 -300.000 -280.000 -260.000 -240.000 -220.000 -200.000 -180.000 -160.000 -140.000 -120.000 -100.000 -80.000 -60.000 -40.000 -20.000 0.000
2520 -2500.000 -2480.000 -2460.000 -2440.000 -2420.000 -2400.000 -2380.000 -2360.000 -2340.000 -2320.000 -2300.000 -2280.000 -2260.000 -2240.000 -2220.000 -2200.000 -2180.000 -2160.000 -2140.000 -2120.000 -2100.000 -2080.000 -2060.000 -2040.000 -2020.000 -2000.000 -1980.000 -1960.000 -1940.000 -1920.000 -1900.000 -1880.000 -1860.000 -1840.000 -1820.000 -1800.000 -1780.000 -1760.000 -1740.000 -1720.000 -1700.000 -1680.000 -1660.000 -1640.000 -1620.000 -1600.000 -1580.000 -1560.000 -1540.000 -1520.000 -1500.000 -1480.000 -1460.000 -1440.000 -1420.000 -1400.000 -1380.000 -1360.000 -1340.000 -1320.000 -1300.000 -1280.000 -1260.000 -1240.000 -1220.000 -1200.000 -1180.000 -1160.000 -1140.000 -1120.000 -1100.000 -1080.000 -1060.000 -1040.000 -1020.000 -1000.000 -980.000 -960.000 -940.000 -920.000 -900.000 -880.000 -860.000 -840.000 -820.000 -800.000 -780.000 -760.000 -740.000 -720.000 -700.000 -680.000 -660.000 -640.000 -620.000 -600.000 -580.000 -560.000 -540.000 -520.000 -500.000 -480.000 -460.000 -440.000 -420.000 -400.000 -380.000 -360.000 -340.000 -320.000 -300.000 -280.000 -260.000 -240.000 -220.000 -200.000 -180.000 -160.000 -140.000 -120.000 -100.000 -80.000 -60.000 -40.000 -20.000 0.000
2540 -2500.000 -2480.000 -2460.000 -2440.000 -2420.000 -2400.000 -2380.000 -2360.000 -2340.000 -2320.000 -2300.000 -2280.000 -2260.000 -2240.000 -2220.000 -2200.000 -2180.000 -2160.000 -2140.000 -2120.000 -2100.000 -2080.000 -2060.000 -2040.000 -2020.000 -2000.000 -1980.000 -1960.000 -1940.000 -1920.000 -1900.000 -1880.000 -1860.000 -1840.000 -1820.000 -1800.000 -1780.000 -1760.000 -1740.000 -1720.000 -1700.000 -1680.000 -1660.000 -1640.000 -1620.000 -1600.000 -1580.000 -1560.000 -1540.000 -1520.000 -1500.000 -1480.000 -1460.000 -1440.000 -1420.000 -1400.000 -1380.000 -1360.000 -1340.000 -1320.000 -1300.000 -1280.000 -1260.000 -1240.000 -1220.000 -1200.000 -1180.000 -1160.000 -1140.000 -1120.000 -1100.000 -1080.000 -1060.000 -1040.000 -1020.000 -1000.000 -980.000 -960.000 -940.000 -920.000 -900.000 -880.000 -860.000 -840.000 -820.000 -800.000 -780.000 -760.000 -740.000 -720.000 -700.000 -680.000 -660.000 -640.000 -620.000 -600.000 -580.000 -560.000 -540.000 -520.000 -500.000 -480.000 -460.000 -440.000 -420.000 -400.000 -380.000 -360.000 -340.000 -320.000 -300.000 -280.000 -260.000 -240.000 -220.000 -200.000 -180.000 -160.000 -140.000 -120.000 -100.000 -80.000 -60.000 -40.000 -20.000 0.000
2560 -2500.000 -2480.000 -2460.000 -2440.000 -2420.000 -2400.000 -2380.000 -2360.000 -2340.000 -2320.000 -2300.000 -2280.000 -2260.000 -2240.000 -2220.000 -2200.000 -2180.000 -2160.000 -2140.000 -2120.000 -2100.000 -2080.000 -2060.000 -2040.000 -2020.000 -2000.000 -1980.000 -1960.000 -1940.000 -1920.000 -1900.000 -1880.000 -1860.000 -1840.000 -1820.000 -1800.000 -1780.000 -1760.000 -1740.000 -1720.000 -1700.000 -1680.000 -1660.000 -1640.000 -1620.000 -1600.000 -1580.000 -1560.000 -1540.000 -1520.000 -1500.000 -1480.000 -1460.000 -1440.000 -1420.000 -1400.000 -1380.000 -1360.000 -1340.000 -1320.000 -1300.000 -1280.000 -1260.000 -1240.000 -1220.000 -1200.000 -1180.000 -1160.000 -1140.000 -1120.000 -1100.000 -1080.000 -1060.000 -1040.000 -1020.000 -1000.000 -980.000 -960.000 -940.000 -920.000 -900.000 -880.000 -860.000 -840.000 -820.000 -800.000 -780.000 -760.000 -740.000 -720.000 -700.000 -680.000 -660.000 -640.000 -620.000 -600.000 -580.000 -560.000 -540.000 -520.000 -500.000 -480.000 -460.000 -440.000 -420.000 -400.000 -380.000 -360.000 -340.000 -320.000 -300.000 -280.000 -260.000 -240.000 -220.000 -200.000 -180.000 -160.000 -140.000 -120.000 -100.000 -80.000 -60.000 -40.000 -20.000 0.000
2580 -2500.000 -2480.000 -2460.000 -2440.000 -2420.000 -2400.000 -2380.000 -2360.000 -2340.000 -2320.000 -2300.000 -2280.000 -2260.000 -2240.000 -2220.000 -2200.000 -2180.000 -2160.000 -2140.000 -2120.000 -2100.000 -2080.000 -2060.000 -2040.000 -2020.000 -2000.000 -1980.000 -1960.000 -1940.000 -1920.000 -1900.000 -1880.000 -1860.000 -1840.000 -1820.000 -1800.000 -1780.000 -1760.000 -1740.000 -1720.000 -1700.000 -1680.000 -1660.000 -1640.000 -1620.000 -1600.000 -1580.000 -1560.000 -1540.000 -1520.000 -1500.000 -1480.000 -1460.000 -1440.000 -1420.000 -1400.000 -1380.000 -1360.000 -1340.000 -1320.000 -1300.000 -1280.000 -1260.000 -1240.000 -1220.000 -1200.000 -1180.000 -1160.000 -1140.000 -1120.000 -1100.000 -1080.000 -1060.000 -1040.000 -1020.000 -1000.000 -980.000 -960.000 -940.000 -920.000 -900.000 -880.000 -860.000 -840.000 -820.000 -800.000 -780.000 -760.000 -740.000 -720.000 -700.000 -680.000 -660.000 -640.000 -620.000 -600.000 -580.000 -560.000 -540.000 -520.000 -500.000 -480.000 -460.000 -440.000 -420.000 -400.000 -380.000 -360.000 -340.000 -320.000 -300.000 -280.000 -260.000 -240.000 -220.000 -200.000 -180.000 -160.000 -140.000 -120.000 -100.000 -80.000 -60.000 -40.000 -20.000 0.000
2600 -2500.000 -2480.000 -2460.000 -2440.000 -2420.000 -2400.000 -2380.000 -2360.000 -2340.000 -2320.000 -2300.000 -2280.000 -2260.000 -2240.000 -2220.000 -2200.000 -2180.000 -2160.000 -2140.000 -2120.000 -2100.000 -2080.000 -2060.000 -2040.000 -2020.000 -2000.000 -1980.000 -1960.000 -1940.000 -1920.000 -1900.000 -1880.000 -1860.000 -1840.000 -1820.000 -1800.000 -1780.000 -1760.000 -1740.000 -1720.000 -1700.000 -1680.000 -1660.000 -1640.000 -1620.000 -1600.000 -1580.000 -1560.000 -1540.000 -1520.000 -1500.000 -1480.000 -1460.000 -1440.000 -1420.000 -1400.000 -1380.000 -1360.000 -1340.000 -1320.000 -1300.000 -1280.000 -1260.000 -1240.000 -1220.000 -1200.000 -1180.000 -1160.000 -1140.000 -1120.000 -1100.000 -1080.000 -1060.000 -1040.000 -1020.000 -1000.000 -980.000 -960.000 -940.000 -920.000 -900.000 -880.000 -860.000 -840.000 -820.000 -800.000 -780.000 -760.000 -740.000 -720.000 -700.000 -680.000 -660.000 -640.000 -620.000 -600.000 -580.000 -560.000 -540.000 -520.000 -500.000 -480.000 -460.000 -440.000 -420.000 -400.000 -380.000 -360.000 -340.000 -320.000 -300.000 -280.000 -260.000 -240.000 -220.000 -200.000 -180.000 -160.000 -140.000 -120.000 -100.000 -80.000 -60.000 -40.000 -20.000 0.000
2620 -2500.000 -2480.000 -2460.000 -2440.000 -2420.000 -2400.000 -2380.000 -2360.000 -2340.000 -2320.000 -2300.000 -2280.000 -2260.000 -2240.000 -2220.000 -2200.000 -2180.000 -2160.000 -2140.000 -2120.000 -2100.000 -2080.000 -2060.000 -2040.000 -2020.000 -2000.000 -1980.000 -1960.000 -1940.000 -1920.000 -1900.000 -1880.000 -1860.000 -1840.000 -1820.000 -1800.000 -1780.000 -1760.000 -1740.000 -1720.000 -1700.000 -1680.000 -1660.000 -1640.000 -1620.000 -1600.000 -1580.000 -1560.000 -1540.000 -1520.000 -1500.000 -1480.000 -1460.000 -1440.000 -1420.000 -1400.000 -1380.000 -1360.000 -1340.000 -1320.000 -1300.000 -1280.000 -1260.000 -1240.000 -1220.000 -1200.000 -1180.000 -1160.000 -1140.000 -1120.000 -1100.000 -1080.000 -1060.000 -1040.000 -1020.000 -1000.000 -980.000 -960.000 -940.000 -920.000 -900.000 -880.000 -860.000 -840.000 -820.000 -800.000 -780.000 -760.000 -740.000 -720.000 -700.000 -680.000 -660.000 -640.000 -620.000 -600.000 -580.000 -560.000 -540.000 -520.000 -500.000 -480.000 -460.000 -440.000 -420.000 -400.000 -380.000 -360.000 -340.000 -320.000 -300.000 -280.000 -260.000 -240.000 -220.000 -200.000 -180.000 -160.000 -140.000 -120.000 -100.000 -80.000 -60.000 -40.000 -20.000 0.000
2640 -2500.000 -2480.000 -2460.000 -2440.000 -2420.000 -2400.000 -2380.000 -2360.000 -2340.000 -2320.000 -2300.000 -2280.000 -2260.000 -2240.000 -2220.000 -2200.000 -2180.000 -2160.000 -2140.000 -2120.000 -2100.000 -2080.000 -2060.000 -2040.000 -2020.000 -2000.000 -1980.000 -1960.000 -1940.000 -1920.000 -1900.000 -1880.000 -1860.000 -1840.000 -1820.000 -1800.000 -1780.000 -1760.000 -1740.000 -1720.000 -1700.000 -1680.000 -1660.000 -1640.000 -1620.000 -1600.000 -1580.000 -1560.000 -1540.000 -1520.000 -1500.000 -1480.000 -1460.000 -1440.000 -1420.000 -1400.000 -1380.000 -1360.000 -1340.000 -1320.000 -1300.000 -1280.000 -1260.000 -1240.000 -1220.000 -1200.000 -1180.000 -1160.000 -1140.000 -1120.000 -1100.000 -1080.000 -1060.000 -1040.000 -1020.000 -1000.000 -980.000 -960.000 -940.000 -920.000 -900.000 -880.000 -860.000 -840.000 -820.000 -800.000 -780.000 -760.000 -740.000 -720.000 -700.000 -680.000 -660.000 -640.000 -620.000 -600.000 -580.000 -560.000 -540.000 -520.000 -500.000 -480.000 -460.000 -440.000 -420.000 -400.000 -380.000 -360.000 -340.000 -320.000 -300.000 -280.000 -260.000 -240.000 -220.000 -200.000 -180.000 -160.000 -140.000 -120.000 -100.000 -80.000 -60.000 -40.000 -20.000 0.000
2660 -2500.000 -2480.000 -2460.000 -2440.000 -2420.000 -2400.000 -2380.000 -2360.000 -2340.000 -2320.000 -2300.000 -2280.000 -2260.000 -2240.000 -2220.000 -2200.000 -2180.000 -2160.000 -2140.000 -2120.000 -2100.000 -2080.000 -2060.000 -2040.000 -2020.000 -2000.000 -1980.000 -1960.000 -1940.000 -1920.000 -1900.000 -1880.000 -1860.000 -1840.000 -1820.000 -1800.000 -1780.000 -1760.000 -1740.000 -1720.000 -1700.000 -1680.000 -1660.000 -1640.000 -1620.000 -1600.000 -1580.000 -1560.000 -1540.000 -1520.000 -1500.000 -1480.000 -1460.000 -1440.000 -1420.000 -1400.000 -1380.000 -1360.000 -1340.000 -1320.000 -1300.000 -1280.000 -1260.000 -1240.000 -1220.000 -1200.000 -1180.000 -1160.000 -1140.000 -1120.000 -1100.000 -1080.000 -1060.000 -1040.000 -1020.000 -1000.000 -980.000 -960.000 -940.000 -920.000 -900.000 -880.000 -860.000 -840.000 -820.000 -800.000 -780.000 -760.000 -740.000 -720.000 -700.000 -680.000 -660.000 -640.000 -620.000 -600.000 -580.000 -560.000 -540.000 -520.000 -500.000 -480.000 -460.000 -440.000 -420.000 -400.000 -380.000 -360.000 -340.000 -320.000 -300.000 -280.000 -260.000 -240.000 -220.000 -200.000 -180.000 -160.000 -140.000 -120.000 -100.000 -80.000 -60.000 -40.000 -20.000 0.000
2680 -2500.000 -2480.000 -2460.000 -2440.000 -2420.000 -2400.000 -2380.000 -2360.000 -2340.000 -2320.000 -2300.000 -2280.000 -2260.000 -2240.000 -2220.000 -2200.000 -2180.000 -2160.000 -2140.000 -2120.000 -2100.000 -2080.000 -2060.000 -2040.000 -2020.000 -2000.000 -1980.000 -1960.000 -1940.000 -1920.000 -1900.000 -1880.000 -1860.000 -1840.000 -1820.000 -1800.000 -1780.000 -1760.000 -1740.000 -1720.000 -1700.000 -1680.000 -1660.000 -1640.000 -1620.000 -1600.000 -1580.000 -1560.000 -1540.000 -1520.000 -1500.000 -1480.000 -1460.000 -1440.000 -1420.000 -1400.000 -1380.000 -1360.000 -1340.000 -1320.000 -1300.000 -1280.000 -1260.000 -1240.000 -1220.000 -1200.000 -1180.000 -1160.000 -1140.000 -1120.000 -1100.000 -1080.000 -1060.000 -1040.000 -1020.000 -1000.000 -980.000 -960.000 -940.000 -920.000 -900.000 -880.000 -860.000 -840.000 -820.000 -800.000 -780.000 -760.000 -740.000 -720.000 -700.000 -680.000 -660.000 -640.000 -620.000 -600.000 -580.000 -560.000 -540.000 -520.000 -500.000 -480.000 -460.000 -440.000 -420.000 -400.000 -380.000 -360.000 -340.000 -320.000 -300.000 -280.000 -260.000 -240.000 -220.000 -200.000 -180.000 -160.000 -140.000 -120.000 -100.000 -80.000 -60.000 -40.000 -20.000 0.000
2700 -2500.000 -2480.000 -2460.000 -2440.000 -2420.000 -2400.000 -2380.000 -2360.000 -2340.000 -2320.000 -2300.000 -2280.000 -2260.000 -2240.000 -2220.000 -2200.000 -2180.000 -2160.000 -2140.000 -2120.000 -2100.000 -2080.000 -2060.000 -2040.000 -2020.000 -2000.000 -1980.000 -1960.000 -1940.000 -1920.000 -1900.000 -1880.000 -1860.000 -1840.000 -1820.000 -1800.000 -1780.000 -1760.000 -1740.000 -1720.000 -1700.000 -1680.000 -1660.000 -1640.000 -1620.000 -1600.000 -1580.000 -1560.000 -1540.000 -1520.000 -1500.000 -1480.000 -1460.000 -1440.000 -1420.000 -1400.000 -1380.000 -1360.000 -1340.000 -1320.000 -1300.000 -1280.000 -1260.000 -1240.000 -1220.000 -1200.000 -1180.000 -1160.000 -1140.000 -1120.000 -1100.000 -1080.000 -1060.000 -1040.000 -1020.000 -1000.000 -980.000 -960.000 -940.000 -920.000 -900.000 -880.000 -860.000 -840.000 -820.000 -800.000 -780.000 -760.000 -740.000 -720.000 -700.000 -680.000 -660.000 -640.000 -620.000 -600.000 -580.000 -560.000 -540.000 -520.000 -500.000 -480.000 -460.000 -440.000 -420.000 -400.000 -380.000 -360.000 -340.000 -320.000 -300.000 -280.000 -260.000 -240.000 -220.000 -200.000 -180.000 -160.000 -140.000 -120.000 -100.000 -80.000 -60.000 -40.000 -20.000 0.000
2720 -2500.000 -2480.000 -2460.000 -2440.000 -2420.000 -2400.000 -2380.000 -2360.000 -2340.000 -2320.000 -2300.000 -2280.000 -2260.000 -2240.000 -2220.000 -2200.000 -2180.000 -2160.000 -2140.000 -2120.000 -2100.000 -2080.000 -2060.000 -2040.000 -2020.000 -2000.000 -1980.000 -1960.000 -1940.000 -1920.000 -1900.000 -1880.000 -1860.000 -1840.000 -1820.000 -1800.000 -1780.000 -1760.000 -1740.000 -1720.000 -1700.000 -1680.000 -1660.000 -1640.000 -1620.000 -1600.000 -1580.000 -1560.000 -1540.000 -1520.000 -1500.000 -1480.000 -1460.000 -1440.000 -1420.000 -1400.000 -1380.000 -1360.000 -1340.000 -1320.000 -1300.000 -1280.000 -1260.000 -1240.000 -1220.000 -1200.000 -1180.000 -1160.000 -1140.000 -1120.000 -1100.000 -1080.000 -1060.000 -1040.000 -1020.000 -1000.000 -980.000 -960.000 -940.000 -920.000 -900.000 -880.000 -860.000 -840.000 -820.000 -800.000 -780.000 -760.000 -740.000 -720.000 -700.000 -680.000 -660.000 -640.000 -620.000 -600.000 -580.000 -560.000 -540.000 -520.000 -500.000 -480.000 -460.000 -440.000 -420.000 -400.000 -380.000 -360.000 -340.000 -320.000 -300.000 -280.000 -260.000 -240.000 -220.000 -200.000 -180.000 -160.000 -140.000 -120.000 -100.000 -80.000 -60.000 -40.000 -20.000 0.000
2740 -2500.000 -2480.000 -2460.000 -2440.000 -2420.000 -2400.000 -2380.000 -2360.000 -2340.000 -2320.000 -2300.000 -2280.000 -2260.000 -2240.000 -2220.000 -2200.000 -2180.000 -2160.000 -2140.000 -2120.000 -2100.000 -2080.000 -2060.000 -2040.000 -2020.000 -2000.000 -1980.000 -1960.000 -1940.000 -1920.000 -1900.000 -1880.000 -1860.000 -1840.000 -1820.000 -1800.000 -1780.000 -1760.000 -1740.000 -1720.000 -1700.000 -1680.000 -1660.000 -1640.000 -1620.000 -1600.000 -1580.000 -1560.000 -1540.000 -1520.000 -1500.000 -1480.000 -1460.000 -1440.000 -1420.000 -1400.000 -1380.000 -1360.000 -1340.000 -1320.000 -1300.000 -1280.000 -1260.000 -1240.000 -1220.000 -1200.000 -1180.000 -1160.000 -1140.000 -1120.000 -1100.000 -1080.000 -1060.000 -1040.000 -1020.000 -1000.000 -980.000 -960.000 -940.000 -920.000 -900.000 -880.000 -860.000 -840.000 -820.000 -800.000 -780.000 -760.000 -740.000 -720.000 -700.000 -680.000 -660.000 -640.000 -620.000 -600.000 -580.000 -560.000 -540.000 -520.000 -500.000 -480.000 -460.000 -440.000 -420.000 -400.000 -380.000 -360.000 -340.000 -320.000 -300.000 -280.000 -260.000 -240.000 -220.000 -200.000 -180.000 -160.000 -140.000 -120.000 -100.000 -80.000 -60.000 -40.000 -20.000 0.000
2760 -2500.000 -2480.000 -2460.000 -2440.000 -2420.000 -2400.000 -2380.000 -2360.000 -2340.000 -2320.000 -2300.000 -2280.000 -2260.000 -2240.000 -2220.000 -2200.000 -2180.000 -2160.000 -2140.000 -2120.000 -2100.000 -2080.000 -2060.000 -2040.000 -2020.000 -2000.000 -1980.000 -1960.000 -1940.000 -1920.000 -1900.000 -1880.000 -1860.000 -1840.000 -1820.000 -1800.000 -1780.000 -1760.000 -1740.000 -1720.000 -1700.000 -1680.000 -1660.000 -1640.000 -1620.000 -1600.000 -1580.000 -1560.000 -1540.000 -1520.000 -1500.000 -1480.000 -1460.000 -1440.000 -1420.000 -1400.000 -1380.000 -1360.000 -1340.000 -1320.000 -1300.000 -1280.000 -1260.000 -1240.000 -1220.000 -1200.000 -1180.000 -1160.000 -1140.000 -1120.000 -1100.000 -1080.000 -1060.000 -1040.000 -1020.000 -1000.000 -980.000 -960.000 -940.000 -920.000 -900.000 -880.000 -860.000 -840.000 -820.000 -800.000 -780.000 -760.000 -740.000 -720.000 -700.000 -680.000 -660.000 -640.000 -620.000 -600.000 -580.000 -560.000 -540.000 -520.000 -500.000 -480.000 -460.000 -440.000 -420.000 -400.000 -380.000 -360.000 -340.000 -320.000 -300.000 -280.000 -260.000 -240.000 -220.000 -200.000 -180.000 -160.000 -140.000 -120.000 -100.000 -80.000 -60.000 -40.000 -20.000 0.000
2780 -2500.000 -2480.000 -2460.000 -2440.000 -2420.000 -2400.000 -2380.000 -2360.000 -2340.000 -2320.000 -2300.000 -2280.000 -2260.000 -2240.000 -2220.000 -2200.000 -2180.000 -2160.000 -2140.000 -2120.000 -2100.000 -2080.000 -2060.000 -2040.000 -2020.000 -2000.000 -1980.000 -1960.000 -1940.000 -1920.000 -1900.000 -1880.000 -1860.000 -1840.000 -1820.000 -1800.000 -1780.000 -1760.000 -1740.000 -1720.000 -1700.000 -1680.000 -1660.000 -1640.000 -1620.000 -1600.000 -1580.000 -1560.000 -1540.000 -1520.000 -1500.000 -1480.000 -1460.000 -1440.000 -1420.000 -1400.000 -1380.000 -1360.000 -1340.000 -1320.000 -1300.000 -1280.000 -1260.000 -1240.000 -1220.000 -1200.000 -1180.000 -1160.000 -1140.000 -1120.000 -1100.000 -1080.000 -1060.000 -1040.000 -1020.000 -1000.000 -980.000 -960.000 -940.000 -920.000 -900.000 -880.000 -860.000 -840.000 -820.000 -800.000 -780.000 -760.000 -740.000 -720.000 -700.000 -680.000 -660.000 -640.000 -620.000 -600.000 -580.000 -560.000 -540.000 -520.000 -500.000 -480.000 -460.000 -440.000 -420.000 -400.000 -380.000 -360.000 -340.000 -320.000 -300.000 -280.000 -260.000 -240.000 -220.000 -200.000 -180.000 -160.000 -140.000 -120.000 -100.000 -80.000 -60.000 -40.000 -20.000 0.000
2800 -2500.000 -2480.000 -2460.000 -2440.000 -2420.000 -2400.000 -2380.000 -2360.000 -2340.000 -2320.000 -2300.000 -2280.000 -2260.000 -2240.000 -2220.000 -2200.000 -2180.000 -2160.000 -2140.000 -2120.000 -2100.000 -2080.000 -2060.000 -2040.000 -2020.000 -2000.000 -1980.000 -1960.000 -1940.000 -1920.000 -1900.000 -1880.000 -1860.000 -1840.000 -1820.000 -1800.000 -1780.000 -1760.000 -1740.000 -1720.000 -1700.000 -1680.000 -1660.000 -1640.000 -1620.000 -1600.000 -1580.000 -1560.000 -1540.000 -1520.000 -1500.000 -1480.000 -1460.000 -1440.000 -1420.000 -1400.000 -1380.000 -1360.000 -1340.000 -1320.000 -1300.000 -1280.000 -1260.000 -1240.000 -1220.000 -1200.000 -1180.000 -1160.000 -1140.000 -1120.000 -1100.000 -1080.000 -1060.000 -1040.000 -1020.000 -1000.000 -980.000 -960.000 -940.000 -920.000 -900.000 -880.000 -860.000 -840.000 -820.000 -800.000 -780.000 -760.000 -740.000 -720.000 -700.000 -680.000 -660.000 -640.000 -620.000 -600.000 -580.000 -560.000 -540.000 -520.000 -500.000 -480.000 -460.000 -440.000 -420.000 -400.000 -380.000 -360.000 -340.000 -320.000 -300.000 -280.000 -260.000 -240.000 -220.000 -200.000 -180.000 -160.000 -140.000 -120.000 -100.000 -80.000 -60.000 -40.000 -20.000 0.000
2820 -2500.000 -2480.000 -2460.000 -2440.000 -2420.000 -2400.000 -2380.000 -2360.000 -2340.000 -2320.000 -2300.000 -2280.000 -2260.000 -2240.000 -2220.000 -2200.000 -2180.000 -2160.000 -2140.000 -2120.000 -2100.000 -2080.000 -2060.000 -2040.000 -2020.000 -2000.000 -1980.000 -1960.000 -1940.000 -1920.000 -1900.000 -1880.000 -1860.000 -1840.000 -1820.000 -1800.000 -1780.000 -1760.000 -1740.000 -1720.000 -1700.000 -1680.000 -1660.000 -1640.000 -1620.000 -1600.000 -1580.000 -1560.000 -1540.000 -1520.000 -1500.000 -1480.000 -1460.000 -1440.000 -1420.000 -1400.000 -1380.000 -1360.000 -1340.000 -1320.000 -1300.000 -1280.000 -1260.000 -1240.000 -1220.000 -1200.000 -1180.000 -1160.000 -1140.000 -1120.000 -1100.000 -1080.000 -1060.000 -1040.000 -1020.000 -1000.000 -980.000 -960.000 -940.000 -920.000 -900.000 -880.000 -860.000 -840.000 -820.000 -800.000 -780.000 -760.000 -740.000 -720.000 -700.000 -680.000 -660.000 -640.000 -620.000 -600.000 -580.000 -560.000 -540.000 -520.000 -500.000 -480.000 -460.000 -440.000 -420.000 -400.000 -380.000 -360.000 -340.000 -320.000 -300.000 -280.000 -260.000 -240.000 -220.000 -200.000 -180.000 -160.000 -140.000 -120.000 -100.000 -80.000 -60.000 -40.000 -20.000 0.000
2840 -2500.000 -2480.000 -2460.000 -2440.000 -2420.000 -2400.000 -2380.000 -2360.000 -2340.000 -2320.000 -2300.000 -2280.000 -2260.000 -2240.000 -2220.000 -2200.000 -2180.000 -2160.000 -2140.000 -2120.000 -2100.000 -2080.000 -2060.000 -2040.000 -2020.000 -2000.000 -1980.000 -1960.000 -1940.000 -1920.000 -1900.000 -1880.000 -1860.000 -1840.000 -1820.000 -1800.000 -1780.000 -1760.000 -1740.000 -1720.000 -1700.000 -1680.000 -1660.000 -1640.000 -1620.000 -1600.000 -1580.000 -1560.000 -1540.000 -1520.000 -1500.000 -1480.000 -1460.000 -1440.000 -1420.000 -1400.000 -1380.000 -1360.000 -1340.000 -1320.000 -1300.000 -1280.000 -1260.000 -1240.000 -1220.000 -1200.000 -1180.000 -1160.000 -1140.000 -1120.000 -1100.000 -1080.000 -1060.000 -1040.000 -1020.000 -1000.000 -980.000 -960.000 -940.000 -920.000 -900.000 -880.000 -860.000 -840.000 -820.000 -800.000 -780.000 -760.000 -740.000 -720.000 -700.000 -680.000 -660.000 -640.000 -620.000 -600.000 -580.000 -560.000 -540.000 -520.000 -500.000 -480.000 -460.000 -440.000 -420.000 -400.000 -380.000 -360.000 -340.000 -320.000 -300.000 -280.000 -260.000 -240.000 -220.000 -200.000 -180.000 -160.000 -140.000 -120.000 -100.000 -80.000 -60.000 -40.000 -20.000 0.000
2860 -2500.000 -2480.000 -2460.000 -2440.000 -2420.000 -2400.000 -2380.000 -2360.000 -2340.000 -2320.000 -2300.000 -2280.000 -2260.000 -2240.000 -2220.000 -2200.000 -2180.000 -2160.000 -2140.000 -2120.000 -2100.000 -2080.000 -2060.000 -2040.000 -2020.000 -2000.000 -1980.000 -1960.000 -1940.000 -1920.000 -1900.000 -1880.000 -1860.000 -1840.000 -1820.000 -1800.000 -1780.000 -1760.000 -1740.000 -1720.000 -1700.000 -1680.000 -1660.000 -1640.000 -1620.000 -1600.000 -1580.000 -1560.000 -1540.000 -1520.000 -1500.000 -1480.000 -1460.000 -1440.000 -1420.000 -1400.000 -1380.000 -1360.000 -1340.000 -1320.000 -1300.000 -1280.000 -1260.000 -1240.000 -1220.000 -1200.000 -1180.000 -1160.000 -1140.000 -1120.000 -1100.000 -1080.000 -1060.000 -1040.000 -1020.000 -1000.000 -980.000 -960.000 -940.000 -920.000 -900.000 -880.000 -860.000 -840.000 -820.000 -800.000 -780.000 -760.000 -740.000 -720.000 -700.000 -680.000 -660.000 -640.000 -620.000 -600.000 -580.000 -560.000 -540.000 -520.000 -500.000 -480.000 -460.000 -440.000 -420.000 -400.000 -380.000 -360.000 -340.000 -320.000 -300.000 -280.000 -260.000 -240.000 -220.000 -200.000 -180.000 -160.000 -140.000 -120.000 -100.000 -80.000 -60.000 -40.000 -20.000 0.000
2880 -2500.000 -2480.000 -2460.000 -2440.000 -2420.000 -2400.000 -2380.000 -2360.000 -2340.000 -2320.000 -2300.000 -2280.000 -2260.000 -2240.000 -2220.000 -2200.000 -2180.000 -2160.000 -2140.000 -2120.000 -2100.000 -2080.000 -2060.000 -2040.000 -2020.000 -2000.000 -1980.000 -1960.000 -1940.000 -1920.000 -1900.000 -1880.000 -1860.000 -1840.000 -1820.000 -1800.000 -1780.000 -1760.000 -1740.000 -1720.000 -1700.000 -1680.000 -1660.000 -1640.000 -1620.000 -1600.000 -1580.000 -1560.000 -1540.000 -1520.000 -1500.000 -1480.000 -1460.000 -1440.000 -1420.000 -1400.000 -1380.000 -1360.000 -1340.000 -1320.000 -1300.000 -1280.000 -1260.000 -1240.000 -1220.000 -1200.000 -1180.000 -1160.000 -1140.000 -1120.000 -1100.000 -1080.000 -1060.000 -1040.000 -1020.000 -1000.000 -980.000 -960.000 -940.000 -920.000 -900.000 -880.000 -860.000 -840.000 -820.000 -800.000 -780.000 -760.000 -740.000 -720.000 -700.000 -680.000 -660.000 -640.000 -620.000 -600.000 -580.000 -560.000 -540.000 -520.000 -500.000 -480.000 -460.000 -440.000 -420.000 -400.000 -380.000 -360.000 -340.000 -320.000 -300.000 -280.000 -260.000 -240.000 -220.000 -200.000 -180.000 -160.000 -140.000 -120.000 -100.000 -80.000 -60.000 -40.000 -20.000 0.000
2900 -2500.000 -2480.000 -2460.000 -2440.000 -2420.000 -2400.000 -2380.000 -2360.000 -2340.000 -2320.000 -2300.000 -2280.000 -2260.000 -2240.000 -2220.000 -2200.000 -2180.000 -2160.000 -2140.000 -2120.000 -2100.000 -2080.000 -2060.000 -2040.000 -2020.000 -2000.000 -1980.000 -1960.000 -1940.000 -1920.000 -1900.000 -1880.000 -1860.000 -1840.000 -1820.000 -1800.000 -1780.000 -1760.000 -1740.000 -1720.000 -1700.000 -1680.000 -1660.000 -1640.000 -1620.000 -1600.000 -1580.000 -1560.000 -1540.000 -1520.000 -1500.000 -1480.000 -1460.000 -1440.000 -1420.000 -1400.000 -1380.000 -1360.000 -1340.000 -1320.000 -1300.000 -1280.000 -1260.000 -1240.000 -1220.000 -1200.000 -1180.000 -1160.000 -1140.000 -1120.000 -1100.000 -1080.000 -1060.000 -1040.000 -1020.000 -1000.000 -980.000 -960.000 -940.000 -920.000 -900.000 -880.000 -860.000 -840.000 -820.000 -800.000 -780.000 -760.000 -740.000 -720.000 -700.000 -680.000 -660.000 -640.000 -620.000 -600.000 -580.000 -560.000 -540.000 -520.000 -500.000 -480.000 -460.000 -440.000 -420.000 -400.000 -380.000 -360.000 -340.000 -320.000 -300.000 -280.000 -260.000 -240.000 -220.000 -200.000 -180.000 -160.000 -140.000 -120.000 -100.000 -80.000 -60.000 -40.000 -20.000 0.000
2920 -2500.000 -2480.000 -2460.000 -2440.000 -2420.000 -2400.000 -2380.000 -2360.000 -2340.000 -2320.000 -2300.000 -2280.000 -2260.000 -2240.000 -2220.000 -2200.000 -2180.000 -2160.000 -2140.000 -2120.000 -2100.000 -2080.000 -2060.000 -2040.000 -2020.000 -2000.000 -1980.000 -1960.000 -1940.000 -1920.000 -1900.000 -1880.000 -1860.000 -1840.000 -1820.000 -1800.000 -1780.000 -1760.000 -1740.000 -1720.000 -1700.000 -1680.000 -1660.000 -1640.000 -1620.000 -1600.000 -1580.000 -1560.000 -1540.000 -1520.000 -1500.000 -1480.000 -1460.000 -1440.000 -1420.000 -1400.000 -1380.000 -1360.000 -1340.000 -1320.000 -1300.000 -1280.000 -1260.000 -1240.000 -1220.000 -1200.000 -1180.000 -1160.000 -1140.000 -1120.000 -1100.000 -1080.000 -1060.000 -1040.000 -1020.000 -1000.000 -980.000 -960.000 -940.000 -920.000 -900.000 -880.000 -860.000 -840.000 -820.000 -800.000 -780.000 -760.000 -740.000 -720.000 -700.000 -680.000 -660.000 -640.000 -620.000 -600.000 -580.000 -560.000 -540.000 -520.000 -500.000 -480.000 -460.000 -440.000 -420.000 -400.000 -380.000 -360.000 -340.000 -320.000 -300.000 -280.000 -260.000 -240.000 -220.000 -200.000 -180.000 -160.000 -140.000 -120.000 -100.000 -80.000 -60.000 -40.000 -20.000 0.000
2940 -2500.000 -2480.000 -2460.000 -2440.000 -2420.000 -2400.000 -2380.000 -2360.000 -2340.000 -2320.000 -2300.000 -2280.000 -2260.000 -2240.000 -2220.000 -2200.000 -2180.000 -2160.000 -2140.000 -2120.000 -2100.000 -2080.000 -2060.000 -2040.000 -2020.000 -2000.000 -1980.000 -1960.000 -1940.000 -1920.000 -1900.000 -1880.000 -1860.000 -1840.000 -1820.000 -1800.000 -1780.000 -1760.000 -1740.000 -1720.000 -1700.000 -1680.000 -1660.000 -1640.000 -1620.000 -1600.000 -1580.000 -1560.000 -1540.000 -1520.000 -1500.000 -1480.000 -1460.000 -1440.000 -1420.000 -1400.000 -1380.000 -1360.000 -1340.000 -1320.000 -1300.000 -1280.000 -1260.000 -1240.000 -1220.000 -1200.000 -1180.000 -1160.000 -1140.000 -1120.000 -1100.000 -1080.000 -1060.000 -1040.000 -1020.000 -1000.000 -980.000 -960.000 -940.000 -920.000 -900.000 -880.000 -860.000 -840.000 -820.000 -800.000 -780.000 -760.000 -740.000 -720.000 -700.000 -680.000 -660.000 -640.000 -620.000 -600.000 -580.000 -560.000 -540.000 -520.000 -500.000 -480.000 -460.000 -440.000 -420.000 -400.000 -380.000 -360.000 -340.000 -320.000 -300.000 -280.000 -260.000 -240.000 -220.000 -200.000 -180.000 -160.000 -140.000 -120.000 -100.000 -80.000 -60.000 -40.000 -20.000 0.000
2960 -2500.000 -2480.000 -2460.000 -2440.000 -2420.000 -2400.000 -2380.000 -2360.000 -2340.000 -2320.000 -2300.000 -2280.000 -2260.000 -2240.000 -2220.000 -2200.000 -2180.000 -2160.000 -2140.000 -2120.000 -2100.000 -2080.000 -2060.000 -2040.000 -2020.000 -2000.000 -1980.000 -1960.000 -1940.000 -1920.000 -1900.000 -1880.000 -1860.000 -1840.000 -1820.000 -1800.000 -1780.000 -1760.000 -1740.000 -1720.000 -1700.000 -1680.000 -1660.000 -1640.000 -1620.000 -1600.000 -1580.000 -1560.000 -1540.000 -1520.000 -1500.000 -1480.000 -1460.000 -1440.000 -1420.000 -1400.000 -1380.000 -1360.000 -1340.000 -1320.000 -1300.000 -1280.000 -1260.000 -1240.000 -1220.000 -1200.000 -1180.000 -1160.000 -1140.000 -1120.000 -1100.000 -1080.000 -1060.000 -1040.000 -1020.000 -1000.000 -980.000 -960.000 -940.000 -920.000 -900.000 -880.000 -860.000 -840.000 -820.000 -800.000 -780.000 -760.000 -740.000 -720.000 -700.000 -680.000 -660.000 -640.000 -620.000 -600.000 -580.000 -560.000 -540.000 -520.000 -500.000 -480.000 -460.000 -440.000 -420.000 -400.000 -380.000 -360.000 -340.000 -320.000 -300.000 -280.000 -260.000 -240.000 -220.000 -200.000 -180.000 -160.000 -140.000 -120.000 -100.000 -80.000 -60.000 -40.000 -20.000 0.000
2980 -2500.000 -2480.000 -2460.000 -2440.000 -2420.000 -2400.000 -2380.000 -2360.000 -2340.000 -2320.000 -2300.000 -2280.000 -2260.000 -2240.000 -2220.000 -2200.000 -2180.000 -2160.000 -2140.000 -2120.000 -2100.000 -2080.000 -2060.000 -2040.000 -2020.000 -2000.000 -1980.000 -1960.000 -1940.000 -1920.000 -1900.000 -1880.000 -1860.000 -1840.000 -1820.000 -1800.000 -1780.000 -1760.000 -1740.000 -1720.000 -1700.000 -1680.000 -1660.000 -1640.000 -1620.000 -1600.000 -1580.000 -1560.000 -1540.000 -1520.000 -1500.000 -1480.000 -1460.000 -1440.000 -1420.000 -1400.000 -1380.000 -1360.000 -1340.000 -1320.000 -1300.000 -1280.000 -1260.000 -1240.000 -1220.000 -1200.000 -1180.000 -1160.000 -1140.000 -1120.000 -1100.000 -1080.000 -1060.000 -1040.000 -1020.000 -1000.000 -980.000 -960.000 -940.000 -920.000 -900.000 -880.000 -860.000 -840.000 -820.000 -800.000 -780.000 -760.000 -740.000 -720.000 -700.000 -680.000 -660.000 -640.000 -620.000 -600.000 -580.000 -560.000 -540.000 -520.000 -500.000 -480.000 -460.000 -440.000 -420.000 -400.000 -380.000 -360.000 -340.000 -320.000 -300.000 -280.000 -260.000 -240.000 -220.000 -200.000 -180.000 -160.000 -140.000 -120.000 -100.000 -80.000 -60.000 -40.000 -20.000 0.000
3000 -2500.000 -2480.000 -2460.000 -2440.000 -2420.000 -2400.000 -2380.000 -2360.000 -2340.000 -2320.000 -2300.000 -2280.000 -2260.000 -2240.000 -2220.000 -2200.000 -2180.000 -2160.000 -2140.000 -2120.000 -2100.000 -2080.000 -2060.000 -2040.000 -2020.000 -2000.000 -1980.000 -1960.000 -1940.000 -1920.000 -1900.000 -1880.000 -1860.000 -1840.000 -1820.000 -1800.000 -1780.000 -1760.000 -1740.000 -1720.000 -1700.000 -1680.000 -1660.000 -1640.000 -1620.000 -1600.000 -1580.000 -1560.000 -1540.000 -1520.000 -1500.000 -1480.000 -1460.000 -1440.000 -1420.000 -1400.000 -1380.000 -1360.000 -1340.000 -1320.000 -1300.000 -1280.000 -1260.000 -1240.000 -1220.000 -1200.000 -1180.000 -1160.000 -1140.000 -1120.000 -1100.000 -1080.000 -1060.000 -1040.000 -1020.000 -1000.000 -980.000 -960.000 -940.000 -920.000 -900.000 -880.000 -860.000 -840.000 -820.000 -800.000 -780.000 -760.000 -740.000 -720.000 -700.000 -680.000 -660.000 -640.000 -620.000 -600.000 -580.000 -560.000 -540.000 -520.000 -500.000 -480.000 -460.000 -440.000 -420.000 -400.000 -380.000 -360.000 -340.000 -320.000 -300.000 -280.000 -260.000 -240.000 -220.000 -200.000 -180.000 -160.000 -140.000 -120.000 -100.000 -80.000 -60.000 -40.000 -20.000 0.000
3020 -2500.000 -2480.000 -2460.000 -2440.000 -2420.000 -2400.000 -2380.000 -2360.000 -2340.000 -2320.000 -2300.000 -2280.000 -2260.000 -2240.000 -2220.000 -2200.000 -2180.000 -2160.000 -2140.000 -2120.000 -2100.000 -2080.000 -2060.000 -2040.000 -2020.000 -2000.000 -1980.000 -1960.000 -1940.000 -1920.000 -1900.000 -1880.000 -1860.000 -1840.000 -1820.000 -1800.000 -1780.000 -1760.000 -1740.000 -1720.000 -1700.000 -1680.000 -1660.000 -1640.000 -1620.000 -1600.000 -1580.000 -1560.000 -1540.000 -1520.000 -1500.000 -1480.000 -1460.000 -1440.000 -1420.000 -1400.000 -1380.000 -1360.000 -1340.000 -1320.000 -1300.000 -1280.000 -1260.000 -1240.000 -1220.000 -1200.000 -1180.000 -1160.000 -1140.000 -1120.000 -1100.000 -1080.000 -1060.000 -1040.000 -1020.000 -1000.000 -980.000 -960.000 -940.000 -920.000 -900.000 -880.000 -860.000 -840.000 -820.000 -800.000 -780.000 -760.000 -740.000 -720.000 -700.000 -680.000 -660.000 -640.000 -620.000 -600.000 -580.000 -560.000 -540.000 -520.000 -500.000 -480.000 -460.000 -440.000 -420.000 -400.000 -380.000 -360.000 -340.000 -320.000 -300.000 -280.000 -260.000 -240.000 -220.000 -200.000 -180.000 -160.000 -140.000 -120.000 -100.000 -80.000 -60.000 -40.000 -20.000 0.000
3040 -2500.000 -2480.000 -2460.000 -2440.000 -2420.000 -2400.000 -2380.000 -2360.000 -2340.000 -2320.000 -2300.000 -2280.000 -2260.000 -2240.000 -2220.000 -2200.000 -2180.000 -2160.000 -2140.000 -2120.000 -2100.000 -2080.000 -2060.000 -2040.000 -2020.000 -2000.000 -1980.000 -1960.000 -1940.000 -1920.000 -1900.000 -1880.000 -1860.000 -1840.000 -1820.000 -1800.000 -1780.000 -1760.000 -1740.000 -1720.000 -1700.000 -1680.000 -1660.000 -1640.000 -1620.000 -1600.000 -1580.000 -1560.000 -1540.000 -1520.000 -1500.000 -1480.000 -1460.000 -1440.000 -1420.000 -1400.000 -1380.000 -1360.000 -1340.000 -1320.000 -1300.000 -1280.000 -1260.000 -1240.000 -1220.000 -1200.000 -1180.000 -1160.000 -1140.000 -1120.000 -1100.000 -1080.000 -1060.000 -1040.000 -1020.000 -1000.000 -980.000 -960.000 -940.000 -920.000 -900.000 -880.000 -860.000 -840.000 -820.000 -800.000 -780.000 -760.000 -740.000 -720.000 -700.000 -680.000 -660.000 -640.000 -620.000 -600.000 -580.000 -560.000 -540.000 -520.000 -500.000 -480.000 -460.000 -440.000 -420.000 -400.000 -380.000 -360.000 -340.000 -320.000 -300.000 -280.000 -260.000 -240.000 -220.000 -200.000 -180.000 -160.000 -140.000 -120.000 -100.000 -80.000 -60.000 -40.000 -20.000 0.000
3060 -2500.000 -2480.000 -2460.000 -2440.000 -2420.000 -2400.000 -2380.000 -2360.000 -2340.000 -2320.000 -2300.000 -2280.000 -2260.000 -2240.000 -2220.000 -2200.000 -2180.000 -2160.000 -2140.000 -2120.000 -2100.000 -2080.000 -2060.000 -2040.000 -2020.000 -2000.000 -1980.000 -1960.000 -1940.000 -1920.000 -1900.000 -1880.000 -1860.000 -1840.000 -1820.000 -1800.000 -1780.000 -1760.000 -1740.000 -1720.000 -1700.000 -1680.000 -1660.000 -1640.000 -1620.000 -1600.000 -1580.000 -1560.000 -1540.000 -1520.000 -1500.000 -1480.000 -1460.000 -1440.000 -1420.000 -1400.000 -1380.000 -1360.000 -1340.000 -1320.000 -1300.000 -1280.000 -1260.000 -1240.000 -1220.000 -1200.000 -1180.000 -1160.000 -1140.000 -1120.000 -1100.000 -1080.000 -1060.000 -1040.000 -1020.000 -1000.000 -980.000 -960.000 -940.000 -920.000 -900.000 -880.000 -860.000 -840.000 -820.000 -800.000 -780.000 -760.000 -740.000 -720.000 -700.000 -680.000 -660.000 -640.000 -620.000 -600.000 -580.000 -560.000 -540.000 -520.000 -500.000 -480.000 -460.000 -440.000 -420.000 -400.000 -380.000 -360.000 -340.000 -320.000 -300.000 -280.000 -260.000 -240.000 -220.000 -200.000 -180.000 -160.000 -140.000 -120.000 -100.000 -80.000 -60.000 -40.000 -20.000 0.000
3080 -2500.000 -2480.000 -2460.000 -2440.000 -2420.000 -2400.000 -2380.000 -2360.000 -2340.000 -2320.000 -2300.000 -2280.000 -2260.000 -2240.000 -2220.000 -2200.000 -2180.000 -2160.000 -2140.000 -2120.000 -2100.000 -2080.000 -2060.000 -2040.000 -2020.000 -2000.000 -1980.000 -1960.000 -1940.000 -1920.000 -1900.000 -1880.000 -1860.000 -1840.000 -1820.000 -1800.000 -1780.000 -1760.000 -1740.000 -1720.000 -1700.000 -1680.000 -1660.000 -1640.000 -1620.000 -1600.000 -1580.000 -1560.000 -1540.000 -1520.000 -1500.000 -1480.000 -1460.000 -1440.000 -1420.000 -1400.000 -1380.000 -1360.000 -1340.000 -1320.000 -1300.000 -1280.000 -1260.000 -1240.000 -1220.000 -1200.000 -1180.000 -1160.000 -1140.000 -1120.000 -1100.000 -1080.000 -1060.000 -1040.000 -1020.000 -1000.000 -980.000 -960.000 -940.000 -920.000 -900.000 -880.000 -860.000 -840.000 -820.000 -800.000 -780.000 -760.000 -740.000 -720.000 -700.000 -680.000 -660.000 -640.000 -620.000 -600.000 -580.000 -560.000 -540.000 -520.000 -500.000 -480.000 -460.000 -440.000 -420.000 -400.000 -380.000 -360.000 -340.000 -320.000 -300.000 -280.000 -260.000 -240.000 -220.000 -200.000 -180.000 -160.000 -140.000 -120.000 -100.000 -80.000 -60.000 -40.000 -20.000 0.000
3100 -2500.000 -2480.000 -2460.000 -2440.000 -2420.000 -2400.000 -2380.000 -2360.000 -2340.000 -2320.000 -2300.000 -2280.000 -2260.000 -2240.000 -2220.000 -2200.000 -2180.000 -2160.000 -2140.000 -2120.000 -2100.000 -2080.000 -2060.000 -2040.000 -2020.000 -2000.000 -1980.000 -1960.000 -1940.000 -1920.000 -1900.000 -1880.000 -1860.000 -1840.000 -1820.000 -1800.000 -1780.000 -1760.000 -1740.000 -1720.000 -1700.000 -1680.000 -1660.000 -1640.000 -1620.000 -1600.000 -1580.000 -1560.000 -1540.000 -1520.000 -1500.000 -1480.000 -1460.000 -1440.000 -1420.000 -1400.000 -1380.000 -1360.000 -1340.000 -1320.000 -1300.000 -1280.000 -1260.000 -1240.000 -1220.000 -1200.000 -1180.000 -1160.000 -1140.000 -1120.000 -1100.000 -1080.000 -1060.000 -1040.000 -1020.000 -1000.000 -980.000 -960.000 -940.000 -920.000 -900.000 -880.000 -860.000 -840.000 -820.000 -800.000 -780.000 -760.000 -740.000 -720.000 -700.000 -680.000 -660.000 -640.000 -620.000 -600.000 -580.000 -560.000 -540.000 -520.000 -500.000 -480.000 -460.000 -440.000 -420.000 -400.000 -380.000 -360.000 -340.000 -320.000 -300.000 -280.000 -260.000 -240.000 -220.000 -200.000 -180.000 -160.000 -140.000 -120.000 -100.000 -80.000 -60.000 -40.000 -20.000 0.000
3120 -2500.000 -2480.000 -2460.000 -2440.000 -2420.000 -2400.000 -2380.000 -2360.000 -2340.000 -2320.000 -2300.000 -2280.000 -2260.000 -2240.000 -2220.000 -2200.000 -2180.000 -2160.000 -2140.000 -2120.000 -2100.000 -2080.000 -2060.000 -2040.000 -2020.000 -2000.000 -1980.000 -1960.000 -1940.000 -1920.000 -1900.000 -1880.000 -1860.000 -1840.000 -1820.000 -1800.000 -1780.000 -1760.000 -1740.000 -1720.000 -1700.000 -1680.000 -1660.000 -1640.000 -1620.000 -1600.000 -1580.000 -1560.000 -1540.000 -1520.000 -1500.000 -1480.000 -1460.000 -1440.000 -1420.000 -1400.000 -1380.000 -1360.000 -1340.000 -1320.000 -1300.000 -1280.000 -1260.000 -1240.000 -1220.000 -1200.000 -1180.000 -1160.000 -1140.000 -1120.000 -1100.000 -1080.000 -1060.000 -1040.000 -1020.000 -1000.000 -980.000 -960.000 -940.000 -920.000 -900.000 -880.000 -860.000 -840.000 -820.000 -800.000 -780.000 -760.000 -740.000 -720.000 -700.000 -680.000 -660.000 -640.000 -620.000 -600.000 -580.000 -560.000 -540.000 -520.000 -500.000 -480.000 -460.000 -440.000 -420.000 -400.000 -380.000 -360.000 -340.000 -320.000 -300.000 -280.000 -260.000 -240.000 -220.000 -200.000 -180.000 -160.000 -140.000 -120.000 -100.000 -80.000 -60.000 -40.000 -20.000 0.000
3140 -2500.000 -2480.000 -2460.000 -2440.000 -2420.000 -2400.000 -2380.000 -2360.000 -2340.000 -2320.000 -2300.000 -2280.000 -2260.000 -2240.000 -2220.000 -2200.000 -2180.000 -2160.000 -2140.000 -2120.000 -2100.000 -2080.000 -2060.000 -2040.000 -2020.000 -2000.000 -1980.000 -1960.000 -1940.000 -1920.000 -1900.000 -1880.000 -1860.000 -1840.000 -1820.000 -1800.000 -1780.000 -1760.000 -1740.000 -1720.000 -1700.000 -1680.000 -1660.000 -1640.000 -1620.000 -1600.000 -1580.000 -1560.000 -1540.000 -1520.000 -1500.000 -1480.000 -1460.000 -1440.000 -1420.000 -1400.000 -1380.000 -1360.000 -1340.000 -1320.000 -1300.000 -1280.000 -1260.000 -1240.000 -1220.000 -1200.000 -1180.000 -1160.000 -1140.000 -1120.000 -1100.000 -1080.000 -1060.000 -1040.000 -1020.000 -1000.000 -980.000 -960.000 -940.000 -920.000 -900.000 -880.000 -860.000 -840.000 -820.000 -800.000 -780.000 -760.000 -740.000 -720.000 -700.000 -680.000 -660.000 -640.000 -620.000 -600.000 -580.000 -560.000 -540.000 -520.000 -500.000 -480.000 -460.000 -440.000 -420.000 -400.000 -380.000 -360.000 -340.000 -320.000 -300.000 -280.000 -260.000 -240.000 -220.000 -200.000 -180.000 -160.000 -140.000 -120.000 -100.000 -80.000 -60.000 -40.000 -20.000 0.000
3160 -2500.000 -2480.000 -2460.000 -2440.000 -2420.000 -2400.000 -2380.000 -2360.000 -2340.000 -2320.000 -2300.000 -2280.000 -2260.000 -2240.000 -2220.000 -2200.000 -2180.000 -2160.000 -2140.000 -2120.000 -2100.000 -2080.000 -2060.000 -2040.000 -2020.000 -2000.000 -1980.000 -1960.000 -1940.000 -1920.000 -1900.000 -1880.000 -1860.000 -1840.000 -1820.000 -1800.000 -1780.000 -1760.000 -1740.000 -1720.000 -1700.000 -1680.000 -1660.000 -1640.000 -1620.000 -1600.000 -1580.000 -1560.000 -1540.000 -1520.000 -1500.000 -1480.000 -1460.000 -1440.000 -1420.000 -1400.000 -1380.000 -1360.000 -1340.000 -1320.000 -1300.000 -1280.000 -1260.000 -1240.000 -1220.000 -1200.000 -1180.000 -1160.000 -1140.000 -1120.000 -1100.000 -1080.000 -1060.000 -1040.000 -1020.000 -1000.000 -980.000 -960.000 -940.000 -920.000 -900.000 -880.000 -860.000 -840.000 -820.000 -800.000 -780.000 -760.000 -740.000 -720.000 -700.000 -680.000 -660.000 -640.000 -620.000 -600.000 -580.000 -560.000 -540.000 -520.000 -500.000 -480.000 -460.000 -440.000 -420.000 -400.000 -380.000 -360.000 -340.000 -320.000 -300.000 -280.000 -260.000 -240.000 -220.000 -200.000 -180.000 -160.000 -140.000 -120.000 -100.000 -80.000 -60.000 -40.000 -20.000 0.000
3180 -2500.000 -2480.000 -2460.000 -2440.000 -2420.000 -2400.000 -2380.000 -2360.000 -2340.000 -2320.000 -2300.000 -2280.000 -2260.000 -2240.000 -2220.000 -2200.000 -2180.000 -2160.000 -2140.000 -2120.000 -2100.000 -2080.000 -2060.000 -2040.000 -2020.000 -2000.000 -1980.000 -1960.000 -1940.000 -1920.000 -1900.000 -1880.000 -1860.000 -1840.000 -1820.000 -1800.000 -1780.000 -1760.000 -1740.000 -1720.000 -1700.000 -1680.000 -1660.000 -1640.000 -1620.000 -1600.000 -1580.000 -1560.000 -1540.000 -1520.000 -1500.000 -1480.000 -1460.000 -1440.000 -1420.000 -1400.000 -1380.000 -1360.000 -1340.000 -1320.000 -1300.000 -1280.000 -1260.000 -1240.000 -1220.000 -1200.000 -1180.000 -1160.000 -1140.000 -1120.000 -1100.000 -1080.000 -1060.000 -1040.000 -1020.000 -1000.000 -980.000 -960.000 -940.000 -920.000 -900.000 -880.000 -860.000 -840.000 -820.000 -800.000 -780.000 -760.000 -740.000 -720.000 -700.000 -680.000 -660.000 -640.000 -620.000 -600.000 -580.000 -560.000 -540.000 -520.000 -500.000 -480.000 -460.000 -440.000 -420.000 -400.000 -380.000 -360.000 -340.000 -320.000 -300.000 -280.000 -260.000 -240.000 -220.000 -200.000 -180.000 -160.000 -140.000 -120.000 -100.000 -80.000 -60.000 -40.000 -20.000 0.000
3200 -2500.000 -2480.000 -2460.000 -2440.000 -2420.000 -2400.000 -2380.000 -2360.000 -2340.000 -2320.000 -2300.000 -2280.000 -2260.000 -2240.000 -2220.000 -2200.000 -2180.000 -2160.000 -2140.000 -2120.000 -2100.000 -2080.000 -2060.000 -2040.000 -2020.000 -2000.000 -1980.000 -1960.000 -1940.000 -1920.000 -1900.000 -1880.000 -1860.000 -1840.000 -1820.000 -1800.000 -1780.000 -1760.000 -1740.000 -1720.000 -1700.000 -1680.000 -1660.000 -1640.000 -1620.000 -1600.000 -1580.000 -1560.000 -1540.000 -1520.000 -1500.000 -1480.000 -1460.000 -1440.000 -1420.000 -1400.000 -1380.000 -1360.000 -1340.000 -1320.000 -1300.000 -1280.000 -1260.000 -1240.000 -1220.000 -1200.000 -1180.000 -1160.000 -1140.000 -1120.000 -1100.000 -1080.000 -1060.000 -1040.000 -1020.000 -1000.000 -980.000 -960.000 -940.000 -920.000 -900.000 -880.000 -860.000 -840.000 -820.000 -800.000 -780.000 -760.000 -740.000 -720.000 -700.000 -680.000 -660.000 -640.000 -620.000 -600.000 -580.000 -560.000 -540.000 -520.000 -500.000 -480.000 -460.000 -440.000 -420.000 -400.000 -380.000 -360.000 -340.000 -320.000 -300.000 -280.000 -260.000 -240.000 -220.000 -200.000 -180.000 -160.000 -140.000 -120.000 -100.000 -80.000 -60.000 -40.000 -20.000 0.000
3220 -2500.000 -2480.000 -2460.000 -2440.000 -2420.000 -2400.000 -2380.000 -2360.000 -2340.000 -2320.000 -2300.000 -2280.000 -2260.000 -2240.000 -2220.000 -2200.000 -2180.000 -2160.000 -2140.000 -2120.000 -2100.000 -2080.000 -2060.000 -2040.000 -2020.000 -2000.000 -1980.000 -1960.000 -1940.000 -1920.000 -1900.000 -1880.000 -1860.000 -1840.000 -1820.000 -1800.000 -1780.000 -1760.000 -1740.000 -1720.000 -1700.000 -1680.000 -1660.000 -1640.000 -1620.000 -1600.000 -1580.000 -1560.000 -1540.000 -1520.000 -1500.000 -1480.000 -1460.000 -1440.000 -1420.000 -1400.000 -1380.000 -1360.000 -1340.000 -1320.000 -1300.000 -1280.000 -1260.000 -1240.000 -1220.000 -1200.000 -1180.000 -1160.000 -1140.000 -1120.000 -1100.000 -1080.000 -1060.000 -1040.000 -1020.000 -1000.000 -980.000 -960.000 -940.000 -920.000 -900.000 -880.000 -860.000 -840.000 -820.000 -800.000 -780.000 -760.000 -740.000 -720.000 -700.000 -680.000 -660.000 -640.000 -620.000 -600.000 -580.000 -560.000 -540.000 -520.000 -500.000 -480.000 -460.000 -440.000 -420.000 -400.000 -380.000 -360.000 -340.000 -320.000 -300.000 -280.000 -260.000 -240.000 -220.000 -200.000 -180.000 -160.000 -140.000 -120.000 -100.000 -80.000 -60.000 -40.000 -20.000 0.000
3240 -2500.000 -2480.000 -2460.000 -2440.000 -2420.000 -2400.000 -2380.000 -2360.000 -2340.000 -2320.000 -2300.000 -2280.000 -2260.000 -2240.000 -2220.000 -2200.000 -2180.000 -2160.000 -2140.000 -2120.000 -2100.000 -2080.000 -2060.000 -2040.000 -2020.000 -2000.000 -1980.000 -1960.000 -1940.000 -1920.000 -1900.000 -1880.000 -1860.000 -1840.000 -1820.000 -1800.000 -1780.000 -1760.000 -1740.000 -1720.000 -1700.000 -1680.000 -1660.000 -1640.000 -1620.000 -1600.000 -1580.000 -1560.000 -1540.000 -1520.000 -1500.000 -1480.000 -1460.000 -1440.000 -1420.000 -1400.000 -1380.000 -1360.000 -1340.000 -1320.000 -1300.000 -1280.000 -1260.000 -1240.000 -1220.000 -1200.000 -1180.000 -1160.000 -1140.000 -1120.000 -1100.000 -1080.000 -1060.000 -1040.000 -1020.000 -1000.000 -980.000 -960.000 -940.000 -920.000 -900.000 -880.000 -860.000 -840.000 -820.000 -800.000 -780.000 -760.000 -740.000 -720.000 -700.000 -680.000 -660.000 -640.000 -620.000 -600.000 -580.000 -560.000 -540.000 -520.000 -500.000 -480.000 -460.000 -440.000 -420.000 -400.000 -380.000 -360.000 -340.000 -320.000 -300.000 -280.000 -260.000 -240.000 -220.000 -200.000 -180.000 -160.000 -140.000 -120.000 -100.000 -80.000 -60.000 -40.000 -20.000 0.000
3260 -2500.000 -2480.000 -2460.000 -2440.000 -2420.000 -2400.000 -2380.000 -2360.000 -2340.000 -2320.000 -2300.000 -2280.000 -2260.000 -2240.000 -2220.000 -2200.000 -2180.000 -2160.000 -2140.000 -2120.000 -2100.000 -2080.000 -2060.000 -2040.000 -2020.000 -2000.000 -1980.000 -1960.000 -1940.000 -1920.000 -1900.000 -1880.000 -1860.000 -1840.000 -1820.000 -1800.000 -1780.000 -1760.000 -1740.000 -1720.000 -1700.000 -1680.000 -1660.000 -1640.000 -1620.000 -1600.000 -1580.000 -1560.000 -1540.000 -1520.000 -1500.000 -1480.000 -1460.000 -1440.000 -1420.000 -1400.000 -1380.000 -1360.000 -1340.000 -1320.000 -1300.000 -1280.000 -1260.000 -1240.000 -1220.000 -1200.000 -1180.000 -1160.000 -1140.000 -1120.000 -1100.000 -1080.000 -1060.000 -1040.000 -1020.000 -1000.000 -980.000 -960.000 -940.000 -920.000 -900.000 -880.000 -860.000 -840.000 -820.000 -800.000 -780.000 -760.000 -740.000 -720.000 -700.000 -680.000 -660.000 -640.000 -620.000 -600.000 -580.000 -560.000 -540.000 -520.000 -500.000 -480.000 -460.000 -440.000 -420.000 -400.000 -380.000 -360.000 -340.000 -320.000 -300.000 -280.000 -260.000 -240.000 -220.000 -200.000 -180.000 -160.000 -140.000 -120.000 -100.000 -80.000 -60.000 -40.000 -20.000 0.000
3280 -2500.000 -2480.000 -2460.000 -2440.000 -2420.000 -2400.000 -2380.000 -2360.000 -2340.000 -2320.000 -2300.000 -2280.000 -2260.000 -2240.000 -2220.000 -2200.000 -2180.000 -2160.000 -2140.000 -2120.000 -2100.000 -2080.000 -2060.000 -2040.000 -2020.000 -2000.000 -1980.000 -1960.000 -1940.000 -1920.000 -1900.000 -1880.000 -1860.000 -1840.000 -1820.000 -1800.000 -1780.000 -1760.000 -1740.000 -1720.000 -1700.000 -1680.000 -1660.000 -1640.000 -1620.000 -1600.000 -1580.000 -1560.000 -1540.000 -1520.000 -1500.000 -1480.000 -1460.000 -1440.000 -1420.000 -1400.000 -1380.000 -1360.000 -1340.000 -1320.000 -1300.000 -1280.000 -1260.000 -1240.000 -1220.000 -1200.000 -1180.000 -1160.000 -1140.000 -1120.000 -1100.000 -1080.000 -1060.000 -1040.000 -1020.000 -1000.000 -980.000 -960.000 -940.000 -920.000 -900.000 -880.000 -860.000 -840.000 -820.000 -800.000 -780.000 -760.000 -740.000 -720.000 -700.000 -680.000 -660.000 -640.000 -620.000 -600.000 -580.000 -560.000 -540.000 -520.000 -500.000 -480.000 -460.000 -440.000 -420.000 -400.000 -380.000 -360.000 -340.000 -320.000 -300.000 -280.000 -260.000 -240.000 -220.000 -200.000 -180.000 -160.000 -140.000 -120.000 -100.000 -80.000 -60.000 -40.000 -20.000 0.000
3300 -2500.000 -2480.000 -2460.000 -2440.000 -2420.000 -2400.000 -2380.000 -2360.000 -2340.000 -2320.000 -2300.000 -2280.000 -2260.000 -2240.000 -2220.000 -2200.000 -2180.000 -2160.000 -2140.000 -2120.000 -2100.000 -2080.000 -2060.000 -2040.000 -2020.000 -2000.000 -1980.000 -1960.000 -1940.000 -1920.000 -1900.000 -1880.000 -1860.000 -1840.000 -1820.000 -1800.000 -1780.000 -1760.000 -1740.000 -1720.000 -1700.000 -1680.000 -1660.000 -1640.000 -1620.000 -1600.000 -1580.000 -1560.000 -1540.000 -1520.000 -1500.000 -1480.000 -1460.000 -1440.000 -1420.000 -1400.000 -1380.000 -1360.000 -1340.000 -1320.000 -1300.000 -1280.000 -1260.000 -1240.000 -1220.000 -1200.000 -1180.000 -1160.000 -1140.000 -1120.000 -1100.000 -1080.000 -1060.000 -1040.000 -1020.000 -1000.000 -980.000 -960.000 -940.000 -920.000 -900.000 -880.000 -860.000 -840.000 -820.000 -800.000 -780.000 -760.000 -740.000 -720.000 -700.000 -680.000 -660.000 -640.000 -620.000 -600.000 -580.000 -560.000 -540.000 -520.000 -500.000 -480.000 -460.000 -440.000 -420.000 -400.000 -380.000 -360.000 -340.000 -320.000 -300.000 -280.000 -260.000 -240.000 -220.000 -200.000 -180.000 -160.000 -140.000 -120.000 -100.000 -80.000 -60.000 -40.000 -20.000 0.000
3320 -2500.000 -2480.000 -2460.000 -2440.000 -2420.000 -2400.000 -2380.000 -2360.000 -2340.000 -2320.000 -2300.000 -2280.000 -2260.000 -2240.000 -2220.000 -2200.000 -2180.000 -2160.000 -2140.000 -2120.000 -2100.000 -2080.000 -2060.000 -2040.000 -2020.000 -2000.000 -1980.000 -1960.000 -1940.000 -1920.000 -1900.000 -1880.000 -1860.000 -1840.000 -1820.000 -1800.000 -1780.000 -1760.000 -1740.000 -1720.000 -1700.000 -1680.000 -1660.000 -1640.000 -1620.000 -1600.000 -1580.000 -1560.000 -1540.000 -1520.000 -1500.000 -1480.000 -1460.000 -1440.000 -1420.000 -1400.000 -1380.000 -1360.000 -1340.000 -1320.000 -1300.000 -1280.000 -1260.000 -1240.000 -1220.000 -1200.000 -1180.000 -1160.000 -1140.000 -1120.000 -1100.000 -1080.000 -1060.000 -1040.000 -1020.000 -1000.000 -980.000 -960.000 -940.000 -920.000 -900.000 -880.000 -860.000 -840.000 -820.000 -800.000 -780.000 -760.000 -740.000 -720.000 -700.000 -680.000 -660.000 -640.000 -620.000 -600.000 -580.000 -560.000 -540.000 -520.000 -500.000 -480.000 -460.000 -440.000 -420.000 -400.000 -380.000 -360.000 -340.000 -320.000 -300.000 -280.000 -260.000 -240.000 -220.000 -200.000 -180.000 -160.000 -140.000 -120.000 -100.000 -80.000 -60.000 -40.000 -20.000 0.000
3340 -2500.000 -2480.000 -2460.000 -2440.000 -2420.000 -2400.000 -2380.000 -2360.000 -2340.000 -2320.000 -2300.000 -2280.000 -2260.000 -2240.000 -2220.000 -2200.000 -2180.000 -2160.000 -2140.000 -2120.000 -2100.000 -2080.000 -2060.000 -2040.000 -2020.000 -2000.000 -1980.000 -1960.000 -1940.000 -1920.000 -1900.000 -1880.000 -1860.000 -1840.000 -1820.000 -1800.000 -1780.000 -1760.000 -1740.000 -1720.000 -1700.000 -1680.000 -1660.000 -1640.000 -1620.000 -1600.000 -1580.000 -1560.000 -1540.000 -1520.000 -1500.000 -1480.000 -1460.000 -1440.000 -1420.000 -1400.000 -1380.000 -1360.000 -1340.000 -1320.000 -1300.000 -1280.000 -1260.000 -1240.000 -1220.000 -1200.000 -1180.000 -1160.000 -1140.000 -1120.000 -1100.000 -1080.000 -1060.000 -1040.000 -1020.000 -1000.000 -980.000 -960.000 -940.000 -920.000 -900.000 -880.000 -860.000 -840.000 -820.000 -800.000 -780.000 -760.000 -740.000 -720.000 -700.000 -680.000 -660.000 -640.000 -620.000 -600.000 -580.000 -560.000 -540.000 -520.000 -500.000 -480.000 -460.000 -440.000 -420.000 -400.000 -380.000 -360.000 -340.000 -320.000 -300.000 -280.000 -260.000 -240.000 -220.000 -200.000 -180.000 -160.000 -140.000 -120.000 -100.000 -80.000 -60.000 -40.000 -20.000 0.000
3360 -2500.000 -2480.000 -2460.000 -2440.000 -2420.000 -2400.000 -2380.000 -2360.000 -2340.000 -2320.000 -2300.000 -2280.000 -2260.000 -2240.000 -2220.000 -2200.000 -2180.000 -2160.000 -2140.000 -2120.000 -2100.000 -2080.000 -2060.000 -2040.000 -2020.000 -2000.000 -1980.000 -1960.000 -1940.000 -1920.000 -1900.000 -1880.000 -1860.000 -1840.000 -1820.000 -1800.000 -1780.000 -1760.000 -1740.000 -1720.000 -1700.000 -1680.000 -1660.000 -1640.000 -1620.000 -1600.000 -1580.000 -1560.000 -1540.000 -1520.000 -1500.000 -1480.000 -1460.000 -1440.000 -1420.000 -1400.000 -1380.000 -1360.000 -1340.000 -1320.000 -1300.000 -1280.000 -1260.000 -1240.000 -1220.000 -1200.000 -1180.000 -1160.000 -1140.000 -1120.000 -1100.000 -1080.000 -1060.000 -1040.000 -1020.000 -1000.000 -980.000 -960.000 -940.000 -920.000 -900.000 -880.000 -860.000 -840.000 -820.000 -800.000 -780.000 -760.000 -740.000 -720.000 -700.000 -680.000 -660.000 -640.000 -620.000 -600.000 -580.000 -560.000 -540.000 -520.000 -500.000 -480.000 -460.000 -440.000 -420.000 -400.000 -380.000 -360.000 -340.000 -320.000 -300.000 -280.000 -260.000 -240.000 -220.000 -200.000 -180.000 -160.000 -140.000 -120.000 -100.000 -80.000 -60.000 -40.000 -20.000 0.000
3380 -2500.000 -2480.000 -2460.000 -2440.000 -2420.000 -2400.000 -2380.000 -2360.000 -2340.000 -2320.000 -2300.000 -2280.000 -2260.000 -2240.000 -2220.000 -2200.000 -2180.000 -2160.000 -2140.000 -2120.000 -2100.000 -2080.000 -2060.000 -2040.000 -2020.000 -2000.000 -1980.000 -1960.000 -1940.000 -1920.000 -1900.000 -1880.000 -1860.000 -1840.000 -1820.000 -1800.000 -1780.000 -1760.000 -1740.000 -1720.000 -1700.000 -1680.000 -1660.000 -1640.000 -1620.000 -1600.000 -1580.000 -1560.000 -1540.000 -1520.000 -1500.000 -1480.000 -1460.000 -1440.000 -1420.000 -1400.000 -1380.000 -1360.000 -1340.000 -1320.000 -1300.000 -1280.000 -1260.000 -1240.000 -1220.000 -1200.000 -1180.000 -1160.000 -1140.000 -1120.000 -1100.000 -1080.000 -1060.000 -1040.000 -1020.000 -1000.000 -980.000 -960.000 -940.000 -920.000 -900.000 -880.000 -860.000 -840.000 -820.000 -800.000 -780.000 -760.000 -740.000 -720.000 -700.000 -680.000 -660.000 -640.000 -620.000 -600.000 -580.000 -560.000 -540.000 -520.000 -500.000 -480.000 -460.000 -440.000 -420.000 -400.000 -380.000 -360.000 -340.000 -320.000 -300.000 -280.000 -260.000 -240.000 -220.000 -200.000 -180.000 -160.000 -140.000 -120.000 -100.000 -80.000 -60.000 -40.000 -20.000 0.000
3400 -2500.000 -2480.000 -2460.000 -2440.000 -2420.000 -2400.000 -2380.000 -2360.000 -2340.000 -2320.000 -2300.000 -2280.000 -2260.000 -2240.000 -2220.000 -2200.000 -2180.000 -2160.000 -2140.000 -2120.000 -2100.000 -2080.000 -2060.000 -2040.000 -2020.000 -2000.000 -1980.000 -1960.000 -1940.000 -1920.000 -1900.000 -1880.000 -1860.000 -1840.000 -1820.000 -1800.000 -1780.000 -1760.000 -1740.000 -1720.000 -1700.000 -1680.000 -1660.000 -1640.000 -1620.000 -1600.000 -1580.000 -1560.000 -1540.000 -1520.000 -1500.000 -1480.000 -1460.000 -1440.000 -1420.000 -1400.000 -1380.000 -1360.000 -1340.000 -1320.000 -1300.000 -1280.000 -1260.000 -1240.000 -1220.000 -1200.000 -1180.000 -1160.000 -1140.000 -1120.000 -1100.000 -1080.000 -1060.000 -1040.000 -1020.000 -1000.000 -980.000 -960.000 -940.000 -920.000 -900.000 -880.000 -860.000 -840.000 -820.000 -800.000 -780.000 -760.000 -740.000 -720.000 -700.000 -680.000 -660.000 -640.000 -620.000 -600.000 -580.000 -560.000 -540.000 -520.000 -500.000 -480.000 -460.000 -440.000 -420.000 -400.000 -380.000 -360.000 -340.000 -320.000 -300.000 -280.000 -260.000 -240.000 -220.000 -200.000 -180.000 -160.000 -140.000 -120.000 -100.000 -80.000 -60.000 -40.000 -20.000 0.000
3420 -2500.000 -2480.000 -2460.000 -2440.000 -2420.000 -2400.000 -2380.000 -2360.000 -2340.000 -2320.000 -2300.000 -2280.000 -2260.000 -2240.000 -2220.000 -2200.000 -2180.000 -2160.000 -2140.000 -2120.000 -2100.000 -2080.000 -2060.000 -2040.000 -2020.000 -2000.000 -1980.000 -1960.000 -1940.000 -1920.000 -1900.000 -1880.000 -1860.000 -1840.000 -1820.000 -1800.000 -1780.000 -1760.000 -1740.000 -1720.000 -1700.000 -1680.000 -1660.000 -1640.000 -1620.000 -1600.000 -1580.000 -1560.000 -1540.000 -1520.000 -1500.000 -1480.000 -1460.000 -1440.000 -1420.000 -1400.000 -1380.000 -1360.000 -1340.000 -1320.000 -1300.000 -1280.000 -1260.000 -1240.000 -1220.000 -1200.000 -1180.000 -1160.000 -1140.000 -1120.000 -1100.000 -1080.000 -1060.000 -1040.000 -1020.000 -1000.000 -980.000 -960.000 -940.000 -920.000 -900.000 -880.000 -860.000 -840.000 -820.000 -800.000 -780.000 -760.000 -740.000 -720.000 -700.000 -680.000 -660.000 -640.000 -620.000 -600.000 -580.000 -560.000 -540.000 -520.000 -500.000 -480.000 -460.000 -440.000 -420.000 -400.000 -380.000 -360.000 -340.000 -320.000 -300.000 -280.000 -260.000 -240.000 -220.000 -200.000 -180.000 -160.000 -140.000 -120.000 -100.000 -80.000 -60.000 -40.000 -20.000 0.000
3440 -2500.000 -2480.000 -2460.000 -2440.000 -2420.000 -2400.000 -2380.000 -2360.000 -2340.000 -2320.000 -2300.000 -2280.000 -2260.000 -2240.000 -2220.000 -2200.000 -2180.000 -2160.000 -2140.000 -2120.000 -2100.000 -2080.000 -2060.000 -2040.000 -2020.000 -2000.000 -1980.000 -1960.000 -1940.000 -1920.000 -1900.000 -1880.000 -1860.000 -1840.000 -1820.000 -1800.000 -1780.000 -1760.000 -1740.000 -1720.000 -1700.000 -1680.000 -1660.000 -1640.000 -1620.000 -1600.000 -1580.000 -1560.000 -1540.000 -1520.000 -1500.000 -1480.000 -1460.000 -1440.000 -1420.000 -1400.000 -1380.000 -1360.000 -1340.000 -1320.000 -1300.000 -1280.000 -1260.000 -1240.000 -1220.000 -1200.000 -1180.000 -1160.000 -1140.000 -1120.000 -1100.000 -1080.000 -1060.000 -1040.000 -1020.000 -1000.000 -980.000 -960.000 -940.000 -920.000 -900.000 -880.000 -860.000 -840.000 -820.000 -800.000 -780.000 -760.000 -740.000 -720.000 -700.000 -680.000 -660.000 -640.000 -620.000 -600.000 -580.000 -560.000 -540.000 -520.000 -500.000 -480.000 -460.000 -440.000 -420.000 -400.000 -380.000 -360.000 -340.000 -320.000 -300.000 -280.000 -260.000 -240.000 -220.000 -200.000 -180.000 -160.000 -140.000 -120.000 -100.000 -80.000 -60.000 -40.000 -20.000 0.000
3460 -2500.000 -2480.000 -2460.000 -2440.000 -2420.000 -2400.000 -2380.000 -2360.000 -2340.000 -2320.000 -2300.000 -2280.000 -2260.000 -2240.000 -2220.000 -2200.000 -2180.000 -2160.000 -2140.000 -2120.000 -2100.000 -2080.000 -2060.000 -2040.000 -2020.000 -2000.000 -1980.000 -1960.000 -1940.000 -1920.000 -1900.000 -1880.000 -1860.000 -1840.000 -1820.000 -1800.000 -1780.000 -1760.000 -1740.000 -1720.000 -1700.000 -1680.000 -1660.000 -1640.000 -1620.000 -1600.000 -1580.000 -1560.000 -1540.000 -1520.000 -1500.000 -1480.000 -1460.000 -1440.000 -1420.000 -1400.000 -1380.000 -1360.000 -1340.000 -1320.000 -1300.000 -1280.000 -1260.000 -1240.000 -1220.000 -1200.000 -1180.000 -1160.000 -1140.000 -1120.000 -1100.000 -1080.000 -1060.000 -1040.000 -1020.000 -1000.000 -980.000 -960.000 -940.000 -920.000 -900.000 -880.000 -860.000 -840.000 -820.000 -800.000 -780.000 -760.000 -740.000 -720.000 -700.000 -680.000 -660.000 -640.000 -620.000 -600.000 -580.000 -560.000 -540.000 -520.000 -500.000 -480.000 -460.000 -440.000 -420.000 -400.000 -380.000 -360.000 -340.000 -320.000 -300.000 -280.000 -260.000 -240.000 -220.000 -200.000 -180.000 -160.000 -140.000 -120.000 -100.000 -80.000 -60.000 -40.000 -20.000 0.000
3480 -2500.000 -2480.000 -2460.000 -2440.000 -2420.000 -2400.000 -2380.000 -2360.000 -2340.000 -2320.000 -2300.000 -2280.000 -2260.000 -2240.000 -2220.000 -2200.000 -2180.000 -2160.000 -2140.000 -2120.000 -2100.000 -2080.000 -2060.000 -2040.000 -2020.000 -2000.000 -1980.000 -1960.000 -1940.000 -1920.000 -1900.000 -1880.000 -1860.000 -1840.000 -1820.000 -1800.000 -1780.000 -1760.000 -1740.000 -1720.000 -1700.000 -1680.000 -1660.000 -1640.000 -1620.000 -1600.000 -1580.000 -1560.000 -1540.000 -1520.000 -1500.000 -1480.000 -1460.000 -1440.000 -1420.000 -1400.000 -1380.000 -1360.000 -1340.000 -1320.000 -1300.000 -1280.000 -1260.000 -1240.000 -1220.000 -1200.000 -1180.000 -1160.000 -1140.000 -1120.000 -1100.000 -1080.000 -1060.000 -1040.000 -1020.000 -1000.000 -980.000 -960.000 -940.000 -920.000 -900.000 -880.000 -860.000 -840.000 -820.000 -800.000 -780.000 -760.000 -740.000 -720.000 -700.000 -680.000 -660.000 -640.000 -620.000 -600.000 -580.000 -560.000 -540.000 -520.000 -500.000 -480.000 -460.000 -440.000 -420.000 -400.000 -380.000 -360.000 -340.000 -320.000 -300.000 -280.000 -260.000 -240.000 -220.000 -200.000 -180.000 -160.000 -140.000 -120.000 -100.000 -80.000 -60.000 -40.000 -20.000 0.000
3500 -2500.000 -2480.000 -2460.000 -2440.000 -2420.000 -2400.000 -2380.000 -2360.000 -2340.000 -2320.000 -2300.000 -2280.000 -2260.000 -2240.000 -2220.000 -2200.000 -2180.000 -2160.000 -2140.000 -2120.000 -2100.000 -2080.000 -2060.000 -2040.000 -2020.000 -2000.000 -1980.000 -1960.000 -1940.000 -1920.000 -1900.000 -1880.000 -1860.000 -1840.000 -1820.000 -1800.000 -1780.000 -1760.000 -1740.000 -1720.000 -1700.000 -1680.000 -1660.000 -1640.000 -1620.000 -1600.000 -1580.000 -1560.000 -1540.000 -1520.000 -1500.000 -1480.000 -1460.000 -1440.000 -1420.000 -1400.000 -1380.000 -1360.000 -1340.000 -1320.000 -1300.000 -1280.000 -1260.000 -1240.000 -1220.000 -1200.000 -1180.000 -1160.000 -1140.000 -1120.000 -1100.000 -1080.000 -1060.000 -1040.000 -1020.000 -1000.000 -980.000 -960.000 -940.000 -920.000 -900.000 -880.000 -860.000 -840.000 -820.000 -800.000 -780.000 -760.000 -740.000 -720.000 -700.000 -680.000 -660.000 -640.000 -620.000 -600.000 -580.000 -560.000 -540.000 -520.000 -500.000 -480.000 -460.000 -440.000 -420.000 -400.000 -380.000 -360.000 -340.000 -320.000 -300.000 -280.000 -260.000 -240.000 -220.000 -200.000 -180.000 -160.000 -140.000 -120.000 -100.000 -80.000 -60.000 -40.000 -20.000 0.000
3520 -2500.000 -2480.000 -2460.000 -2440.000 -2420.000 -2400.000 -2380.000 -2360.000 -2340.000 -2320.000 -2300.000 -2280.000 -2260.000 -2240.000 -2220.000 -2200.000 -2180.000 -2160.000 -2140.000 -2120.000 -2100.000 -2080.000 -2060.000 -2040.000 -2020.000 -2000.000 -1980.000 -1960.000 -1940.000 -1920.000 -1900.000 -1880.000 -1860.000 -1840.000 -1820.000 -1800.000 -1780.000 -1760.000 -1740.000 -1720.000 -1700.000 -1680.000 -1660.000 -1640.000 -1620.000 -1600.000 -1580.000 -1560.000 -1540.000 -1520.000 -1500.000 -1480.000 -1460.000 -1440.000 -1420.000 -1400.000 -1380.000 -1360.000 -1340.000 -1320.000 -1300.000 -1280.000 -1260.000 -1240.000 -1220.000 -1200.000 -1180.000 -1160.000 -1140.000 -1120.000 -1100.000 -1080.000 -1060.000 -1040.000 -1020.000 -1000.000 -980.000 -960.000 -940.000 -920.000 -900.000 -880.000 -860.000 -840.000 -820.000 -800.000 -780.000 -760.000 -740.000 -720.000 -700.000 -680.000 -660.000 -640.000 -620.000 -600.000 -580.000 -560.000 -540.000 -520.000 -500.000 -480.000 -460.000 -440.000 -420.000 -400.000 -380.000 -360.000 -340.000 -320.000 -300.000 -280.000 -260.000 -240.000 -220.000 -200.000 -180.000 -160.000 -140.000 -120.000 -100.000 -80.000 -60.000 -40.000 -20.000 0.000
3540 -2500.000 -2480.000 -2460.000 -2440.000 -2420.000 -2400.000 -2380.000 -2360.000 -2340.000 -2320.000 -2300.000 -2280.000 -2260.000 -2240.000 -2220.000 -2200.000 -2180.000 -2160.000 -2140.000 -2120.000 -2100.000 -2080.000 -2060.000 -2040.000 -2020.000 -2000.000 -1980.000 -1960.000 -1940.000 -1920.000 -1900.000 -1880.000 -1860.000 -1840.000 -1820.000 -1800.000 -1780.000 -1760.000 -1740.000 -1720.000 -1700.000 -1680.000 -1660.000 -1640.000 -1620.000 -1600.000 -1580.000 -1560.000 -1540.000 -1520.000 -1500.000 -1480.000 -1460.000 -1440.000 -1420.000 -1400.000 -1380.000 -1360.000 -1340.000 -1320.000 -1300.000 -1280.000 -1260.000 -1240.000 -1220.000 -1200.000 -1180.000 -1160.000 -1140.000 -1120.000 -1100.000 -1080.000 -1060.000 -1040.000 -1020.000 -1000.000 -980.000 -960.000 -940.000 -920.000 -900.000 -880.000 -860.000 -840.000 -820.000 -800.000 -780.000 -760.000 -740.000 -720.000 -700.000 -680.000 -660.000 -640.000 -620.000 -600.000 -580.000 -560.000 -540.000 -520.000 -500.000 -480.000 -460.000 -440.000 -420.000 -400.000 -380.000 -360.000 -340.000 -320.000 -300.000 -280.000 -260.000 -240.000 -220.000 -200.000 -180.000 -160.000 -140.000 -120.000 -100.000 -80.000 -60.000 -40.000 -20.000 0.000
3560 -2500.000 -2480.000 -2460.000 -2440.000 -2420.000 -2400.000 -2380.000 -2360.000 -2340.000 -2320.000 -2300.000 -2280.000 -2260.000 -2240.000 -2220.000 -2200.000 -2180.000 -2160.000 -2140.000 -2120.000 -2100.000 -2080.000 -2060.000 -2040.000 -2020.000 -2000.000 -1980.000 -1960.000 -1940.000 -1920.000 -1900.000 -1880.000 -1860.000 -1840.000 -1820.000 -1800.000 -1780.000 -1760.000 -1740.000 -1720.000 -1700.000 -1680.000 -1660.000 -1640.000 -1620.000 -1600.000 -1580.000 -1560.000 -1540.000 -1520.000 -1500.000 -1480.000 -1460.000 -1440.000 -1420.000 -1400.000 -1380.000 -1360.000 -1340.000 -1320.000 -1300.000 -1280.000 -1260.000 -1240.000 -1220.000 -1200.000 -1180.000 -1160.000 -1140.000 -1120.000 -1100.000 -1080.000 -1060.000 -1040.000 -1020.000 -1000.000 -980.000 -960.000 -940.000 -920.000 -900.000 -880.000 -860.000 -840.000 -820.000 -800.000 -780.000 -760.000 -740.000 -720.000 -700.000 -680.000 -660.000 -640.000 -620.000 -600.000 -580.000 -560.000 -540.000 -520.000 -500.000 -480.000 -460.000 -440.000 -420.000 -400.000 -380.000 -360.000 -340.000 -320.000 -300.000 -280.000 -260.000 -240.000 -220.000 -200.000 -180.000 -160.000 -140.000 -120.000 -100.000 -80.000 -60.000 -40.000 -20.000 0.000
3580 -2500.000 -2480.000 -2460.000 -2440.000 -2420.000 -2400.000 -2380.000 -2360.000 -2340.000 -2320.000 -2300.000 -2280.000 -2260.000 -2240.000 -2220.000 -2200.000 -2180.000 -2160.000 -2140.000 -2120.000 -2100.000 -2080.000 -2060.000 -2040.000 -2020.000 -2000.000 -1980.000 -1960.000 -1940.000 -1920.000 -1900.000 -1880.000 -1860.000 -1840.000 -1820.000 -1800.000 -1780.000 -1760.000 -1740.000 -1720.000 -1700.000 -1680.000 -1660.000 -1640.000 -1620.000 -1600.000 -1580.000 -1560.000 -1540.000 -1520.000 -1500.000 -1480.000 -1460.000 -1440.000 -1420.000 -1400.000 -1380.000 -1360.000 -1340.000 -1320.000 -1300.000 -1280.000 -1260.000 -1240.000 -1220.000 -1200.000 -1180.000 -1160.000 -1140.000 -1120.000 -1100.000 -1080.000 -1060.000 -1040.000 -1020.000 -1000.000 -980.000 -960.000 -940.000 -920.000 -900.000 -880.000 -860.000 -840.000 -820.000 -800.000 -780.000 -760.000 -740.000 -720.000 -700.000 -680.000 -660.000 -640.000 -620.000 -600.000 -580.000 -560.000 -540.000 -520.000 -500.000 -480.000 -460.000 -440.000 -420.000 -400.000 -380.000 -360.000 -340.000 -320.000 -300.000 -280.000 -260.000 -240.000 -220.000 -200.000 -180.000 -160.000 -140.000 -120.000 -100.000 -80.000 -60.000 -40.000 -20.000 0.000
3600 -2500.000 -2480.000 -2460.000 -2440.000 -2420.000 -2400.000 -2380.000 -2360.000 -2340.000 -2320.000 -2300.000 -2280.000 -2260.000 -2240.000 -2220.000 -2200.000 -2180.000 -2160.000 -2140.000 -2120.000 -2100.000 -2080.000 -2060.000 -2040.000 -2020.000 -2000.000 -1980.000 -1960.000 -1940.000 -1920.000 -1900.000 -1880.000 -1860.000 -1840.000 -1820.000 -1800.000 -1780.000 -1760.000 -1740.000 -1720.000 -1700.000 -1680.000 -1660.000 -1640.000 -1620.000 -1600.000 -1580.000 -1560.000 -1540.000 -1520.000 -1500.000 -1480.000 -1460.000 -1440.000 -1420.000 -1400.000 -1380.000 -1360.000 -1340.000 -1320.000 -1300.000 -1280.000 -1260.000 -1240.000 -1220.000 -1200.000 -1180.000 -1160.000 -1140.000 -1120.000 -1100.000 -1080.000 -1060.000 -1040.000 -1020.000 -1000.000 -980.000 -960.000 -940.000 -920.000 -900.000 -880.000 -860.000 -840.000 -820.000 -800.000 -780.000 -760.000 -740.000 -720.000 -700.000 -680.000 -660.000 -640.000 -620.000 -600.000 -580.000 -560.000 -540.000 -520.000 -500.000 -480.000 -460.000 -440.000 -420.000 -400.000 -380.000 -360.000 -340.000 -320.000 -300.000 -280.000 -260.000 -240.000 -220.000 -200.000 -180.000 -160.000 -140.000 -120.000 -100.000 -80.000 -60.000 -40.000 -20.000 0.000
3620 -2500.000 -2480.000 -2460.000 -2440.000 -2420.000 -2400.000 -2380.000 -2360.000 -2340.000 -2320.000 -2300.000 -2280.000 -2260.000 -2240.000 -2220.000 -2200.000 -2180.000 -2160.000 -2140.000 -2120.000 -2100.000 -2080.000 -2060.000 -2040.000 -2020.000 -2000.000 -1980.000 -1960.000 -1940.000 -1920.000 -1900.000 -1880.000 -1860.000 -1840.000 -1820.000 -1800.000 -1780.000 -1760.000 -1740.000 -1720.000 -1700.000 -1680.000 -1660.000 -1640.000 -1620.000 -1600.000 -1580.000 -1560.000 -1540.000 -1520.000 -1500.000 -1480.000 -1460.000 -1440.000 -1420.000 -1400.000 -1380.000 -1360.000 -1340.000 -1320.000 -1300.000 -1280.000 -1260.000 -1240.000 -1220.000 -1200.000 -1180.000 -1160.000 -1140.000 -1120.000 -1100.000 -1080.000 -1060.000 -1040.000 -1020.000 -1000.000 -980.000 -960.000 -940.000 -920.000 -900.000 -880.000 -860.000 -840.000 -820.000 -800.000 -780.000 -760.000 -740.000 -720.000 -700.000 -680.000 -660.000 -640.000 -620.000 -600.000 -580.000 -560.000 -540.000 -520.000 -500.000 -480.000 -460.000 -440.000 -420.000 -400.000 -380.000 -360.000 -340.000 -320.000 -300.000 -280.000 -260.000 -240.000 -220.000 -200.000 -180.000 -160.000 -140.000 -120.000 -100.000 -80.000 -60.000 -40.000 -20.000 0.000
3640 -2500.000 -2480.000 -2460.000 -2440.000 -2420.000 -2400.000 -2380.000 -2360.000 -2340.000 -2320.000 -2300.000 -2280.000 -2260.000 -2240.000 -2220.000 -2200.000 -2180.000 -2160.000 -2140.000 -2120.000 -2100.000 -2080.000 -2060.000 -2040.000 -2020.000 -2000.000 -1980.000 -1960.000 -1940.000 -1920.000 -1900.000 -1880.000 -1860.000 -1840.000 -1820.000 -1800.000 -1780.000 -1760.000 -1740.000 -1720.000 -1700.000 -1680.000 -1660.000 -1640.000 -1620.000 -1600.000 -1580.000 -1560.000 -1540.000 -1520.000 -1500.000 -1480.000 -1460.000 -1440.000 -1420.000 -1400.000 -1380.000 -1360.000 -1340.000 -1320.000 -1300.000 -1280.000 -1260.000 -1240.000 -1220.000 -1200.000 -1180.000 -1160.000 -1140.000 -1120.000 -1100.000 -1080.000 -1060.000 -1040.000 -1020.000 -1000.000 -980.000 -960.000 -940.000 -920.000 -900.000 -880.000 -860.000 -840.000 -820.000 -800.000 -780.000 -760.000 -740.000 -720.000 -700.000 -680.000 -660.000 -640.000 -620.000 -600.000 -580.000 -560.000 -540.000 -520.000 -500.000 -480.000 -460.000 -440.000 -420.000 -400.000 -380.000 -360.000 -340.000 -320.000 -300.000 -280.000 -260.000 -240.000 -220.000 -200.000 -180.000 -160.000 -140.000 -120.000 -100.000 -80.000 -60.000 -40.000 -20.000 0.000
3660 -2500.000 -2480.000 -2460.000 -2440.000 -2420.000 -2400.000 -2380.000 -2360.000 -2340.000 -2320.000 -2300.000 -2280.000 -2260.000 -2240.000 -2220.000 -2200.000 -2180.000 -2160.000 -2140.000 -2120.000 -2100.000 -2080.000 -2060.000 -2040.000 -2020.000 -2000.000 -1980.000 -1960.000 -1940.000 -1920.000 -1900.000 -1880.000 -1860.000 -1840.000 -1820.000 -1800.000 -1780.000 -1760.000 -1740.000 -1720.000 -1700.000 -1680.000 -1660.000 -1640.000 -1620.000 -1600.000 -1580.000 -1560.000 -1540.000 -1520.000 -1500.000 -1480.000 -1460.000 -1440.000 -1420.000 -1400.000 -1380.000 -1360.000 -1340.000 -1320.000 -1300.000 -1280.000 -1260.000 -1240.000 -1220.000 -1200.000 -1180.000 -1160.000 -1140.000 -1120.000 -1100.000 -1080.000 -1060.000 -1040.000 -1020.000 -1000.000 -980.000 -960.000 -940.000 -920.000 -900.000 -880.000 -860.000 -840.000 -820.000 -800.000 -780.000 -760.000 -740.000 -720.000 -700.000 -680.000 -660.000 -640.000 -620.000 -600.000 -580.000 -560.000 -540.000 -520.000 -500.000 -480.000 -460.000 -440.000 -420.000 -400.000 -380.000 -360.000 -340.000 -320.000 -300.000 -280.000 -260.000 -240.000 -220.000 -200.000 -180.000 -160.000 -140.000 -120.000 -100.000 -80.000 -60.000 -40.000 -20.000 0.000
3680 -2500.000 -2480.000 -2460.000 -2440.000 -2420.000 -2400.000 -2380.000 -2360.000 -2340.000 -2320.000 -2300.000 -2280.000 -2260.000 -2240.000 -2220.000 -2200.000 -2180.000 -2160.000 -2140.000 -2120.000 -2100.000 -2080.000 -2060.000 -2040.000 -2020.000 -2000.000 -1980.000 -1960.000 -1940.000 -1920.000 -1900.000 -1880.000 -1860.000 -1840.000 -1820.000 -1800.000 -1780.000 -1760.000 -1740.000 -1720.000 -1700.000 -1680.000 -1660.000 -1640.000 -1620.000 -1600.000 -1580.000 -1560.000 -1540.000 -1520.000 -1500.000 -1480.000 -1460.000 -1440.000 -1420.000 -1400.000 -1380.000 -1360.000 -1340.000 -1320.000 -1300.000 -1280.000 -1260.000 -1240.000 -1220.000 -1200.000 -1180.000 -1160.000 -1140.000 -1120.000 -1100.000 -1080.000 -1060.000 -1040.000 -1020.000 -1000.000 -980.000 -960.000 -940.000 -920.000 -900.000 -880.000 -860.000 -840.000 -820.000 -800.000 -780.000 -760.000 -740.000 -720.000 -700.000 -680.000 -660.000 -640.000 -620.000 -600.000 -580.000 -560.000 -540.000 -520.000 -500.000 -480.000 -460.000 -440.000 -420.000 -400.000 -380.000 -360.000 -340.000 -320.000 -300.000 -280.000 -260.000 -240.000 -220.000 -200.000 -180.000 -160.000 -140.000 -120.000 -100.000 -80.000 -60.000 -40.000 -20.000 0.000
3700 -2500.000 -2480.000 -2460.000 -2440.000 -2420.000 -2400.000 -2380.000 -2360.000 -2340.000 -2320.000 -2300.000 -2280.000 -2260.000 -2240.000 -2220.000 -2200.000 -2180.000 -2160.000 -2140.000 -2120.000 -2100.000 -2080.000 -2060.000 -2040.000 -2020.000 -2000.000 -1980.000 -1960.000 -1940.000 -1920.000 -1900.000 -1880.000 -1860.000 -1840.000 -1820.000 -1800.000 -1780.000 -1760.000 -1740.000 -1720.000 -1700.000 -1680.000 -1660.000 -1640.000 -1620.000 -1600.000 -1580.000 -1560.000 -1540.000 -1520.000 -1500.000 -1480.000 -1460.000 -1440.000 -1420.000 -1400.000 -1380.000 -1360.000 -1340.000 -1320.000 -1300.000 -1280.000 -1260.000 -1240.000 -1220.000 -1200.000 -1180.000 -1160.000 -1140.000 -1120.000 -1100.000 -1080.000 -1060.000 -1040.000 -1020.000 -1000.000 -980.000 -960.000 -940.000 -920.000 -900.000 -880.000 -860.000 -840.000 -820.000 -800.000 -780.000 -760.000 -740.000 -720.000 -700.000 -680.000 -660.000 -640.000 -620.000 -600.000 -580.000 -560.000 -540.000 -520.000 -500.000 -480.000 -460.000 -440.000 -420.000 -400.000 -380.000 -360.000 -340.000 -320.000 -300.000 -280.000 -260.000 -240.000 -220.000 -200.000 -180.000 -160.000 -140.000 -120.000 -100.000 -80.000 -60.000 -40.000 -20.000 0.000
3720 -2500.000 -2480.000 -2460.000 -2440.000 -2420.000 -2400.000 -2380.000 -2360.000 -2340.000 -2320.000 -2300.000 -2280.000 -2260.000 -2240.000 -2220.000 -2200.000 -2180.000 -2160.000 -2140.000 -2120.000 -2100.000 -2080.000 -2060.000 -2040.000 -2020.000 -2000.000 -1980.000 -1960.000 -1940.000 -1920.000 -1900.000 -1880.000 -1860.000 -1840.000 -1820.000 -1800.000 -1780.000 -1760.000 -1740.000 -1720.000 -1700.000 -1680.000 -1660.000 -1640.000 -1620.000 -1600.000 -1580.000 -1560.000 -1540.000 -1520.000 -1500.000 -1480.000 -1460.000 -1440.000 -1420.000 -1400.000 -1380.000 -1360.000 -1340.000 -1320.000 -1300.000 -1280.000 -1260.000 -1240.000 -1220.000 -1200.000 -1180.000 -1160.000 -1140.000 -1120.000 -1100.000 -1080.000 -1060.000 -1040.000 -1020.000 -1000.000 -980.000 -960.000 -940.000 -920.000 -900.000 -880.000 -860.000 -840.000 -820.000 -800.000 -780.000 -760.000 -740.000 -720.000 -700.000 -680.000 -660.000 -640.000 -620.000 -600.000 -580.000 -560.000 -540.000 -520.000 -500.000 -480.000 -460.000 -440.000 -420.000 -400.000 -380.000 -360.000 -340.000 -320.000 -300.000 -280.000 -260.000 -240.000 -220.000 -200.000 -180.000 -160.000 -140.000 -120.000 -100.000 -80.000 -60.000 -40.000 -20.000 0.000
3740 -2500.000 -2480.000 -2460.000 -2440.000 -2420.000 -2400.000 -2380.000 -2360.000 -2340.000 -2320.000 -2300.000 -2280.000 -2260.000 -2240.000 -2220.000 -2200.000 -2180.000 -2160.000 -2140.000 -2120.000 -2100.000 -2080.000 -2060.000 -2040.000 -2020.000 -2000.000 -1980.000 -1960.000 -1940.000 -1920.000 -1900.000 -1880.000 -1860.000 -1840.000 -1820.000 -1800.000 -1780.000 -1760.000 -1740.000 -1720.000 -1700.000 -1680.000 -1660.000 -1640.000 -1620.000 -1600.000 -1580.000 -1560.000 -1540.000 -1520.000 -1500.000 -1480.000 -1460.000 -1440.000 -1420.000 -1400.000 -1380.000 -1360.000 -1340.000 -1320.000 -1300.000 -1280.000 -1260.000 -1240.000 -1220.000 -1200.000 -1180.000 -1160.000 -1140.000 -1120.000 -1100.000 -1080.000 -1060.000 -1040.000 -1020.000 -1000.000 -980.000 -960.000 -940.000 -920.000 -900.000 -880.000 -860.000 -840.000 -820.000 -800.000 -780.000 -760.000 -740.000 -720.000 -700.000 -680.000 -660.000 -640.000 -620.000 -600.000 -580.000 -560.000 -540.000 -520.000 -500.000 -480.000 -460.000 -440.000 -420.000 -400.000 -380.000 -360.000 -340.000 -320.000 -300.000 -280.000 -260.000 -240.000 -220.000 -200.000 -180.000 -160.000 -140.000 -120.000 -100.000 -80.000 -60.000 -40.000 -20.000 0.000
3760 -2500.000 -2480.000 -2460.000 -2440.000 -2420.000 -2400.000 -2380.000 -2360.000 -2340.000 -2320.000 -2300.000 -2280.000 -2260.000 -2240.000 -2220.000 -2200.000 -2180.000 -2160.000 -2140.000 -2120.000 -2100.000 -2080.000 -2060.000 -2040.000 -2020.000 -2000.000 -1980.000 -1960.000 -1940.000 -1920.000 -1900.000 -1880.000 -1860.000 -1840.000 -1820.000 -1800.000 -1780.000 -1760.000 -1740.000 -1720.000 -1700.000 -1680.000 -1660.000 -1640.000 -1620.000 -1600.000 -1580.000 -1560.000 -1540.000 -1520.000 -1500.000 -1480.000 -1460.000 -1440.000 -1420.000 -1400.000 -1380.000 -1360.000 -1340.000 -1320.000 -1300.000 -1280.000 -1260.000 -1240.000 -1220.000 -1200.000 -1180.000 -1160.000 -1140.000 -1120.000 -1100.000 -1080.000 -1060.000 -1040.000 -1020.000 -1000.000 -980.000 -960.000 -940.000 -920.000 -900.000 -880.000 -860.000 -840.000 -820.000 -800.000 -780.000 -760.000 -740.000 -720.000 -700.000 -680.000 -660.000 -640.000 -620.000 -600.000 -580.000 -560.000 -540.000 -520.000 -500.000 -480.000 -460.000 -440.000 -420.000 -400.000 -380.000 -360.000 -340.000 -320.000 -300.000 -280.000 -260.000 -240.000 -220.000 -200.000 -180.000 -160.000 -140.000 -120.000 -100.000 -80.000 -60.000 -40.000 -20.000 0.000
3780 -2500.000 -2480.000 -2460.000 -2440.000 -2420.000 -2400.000 -2380.000 -2360.000 -2340.000 -2320.000 -2300.000 -2280.000 -2260.000 -2240.000 -2220.000 -2200.000 -2180.000 -2160.000 -2140.000 -2120.000 -2100.000 -2080.000 -2060.000 -2040.000 -2020.000 -2000.000 -1980.000 -1960.000 -1940.000 -1920.000 -1900.000 -1880.000 -1860.000 -1840.000 -1820.000 -1800.000 -1780.000 -1760.000 -1740.000 -1720.000 -1700.000 -1680.000 -1660.000 -1640.000 -1620.000 -1600.000 -1580.000 -1560.000 -1540.000 -1520.000 -1500.000 -1480.000 -1460.000 -1440.000 -1420.000 -1400.000 -1380.000 -1360.000 -1340.000 -1320.000 -1300.000 -1280.000 -1260.000 -1240.000 -1220.000 -1200.000 -1180.000 -1160.000 -1140.000 -1120.000 -1100.000 -1080.000 -1060.000 -1040.000 -1020.000 -1000.000 -980.000 -960.000 -940.000 -920.000 -900.000 -880.000 -860.000 -840.000 -820.000 -800.000 -780.000 -760.000 -740.000 -720.000 -700.000 -680.000 -660.000 -640.000 -620.000 -600.000 -580.000 -560.000 -540.000 -520.000 -500.000 -480.000 -460.000 -440.000 -420.000 -400.000 -380.000 -360.000 -340.000 -320.000 -300.000 -280.000 -260.000 -240.000 -220.000 -200.000 -180.000 -160.000 -140.000 -120.000 -100.000 -80.000 -60.000 -40.000 -20.000 0.000
3800 -2500.000 -2480.000 -2460.000 -2440.000 -2420.000 -2400.000 -2380.000 -2360.000 -2340.000 -2320.000 -2300.000 -2280.000 -2260.000 -2240.000 -2220.000 -2200.000 -2180.000 -2160.000 -2140.000 -2120.000 -2100.000 -2080.000 -2060.000 -2040.000 -2020.000 -2000.000 -1980.000 -1960.000 -1940.000 -1920.000 -1900.000 -1880.000 -1860.000 -1840.000 -1820.000 -1800.000 -1780.000 -1760.000 -1740.000 -1720.000 -1700.000 -1680.000 -1660.000 -1640.000 -1620.000 -1600.000 -1580.000 -1560.000 -1540.000 -1520.000 -1500.000 -1480.000 -1460.000 -1440.000 -1420.000 -1400.000 -1380.000 -1360.000 -1340.000 -1320.000 -1300.000 -1280.000 -1260.000 -1240.000 -1220.000 -1200.000 -1180.000 -1160.000 -1140.000 -1120.000 -1100.000 -1080.000 -1060.000 -1040.000 -1020.000 -1000.000 -980.000 -960.000 -940.000 -920.000 -900.000 -880.000 -860.000 -840.000 -820.000 -800.000 -780.000 -760.000 -740.000 -720.000 -700.000 -680.000 -660.000 -640.000 -620.000 -600.000 -580.000 -560.000 -540.000 -520.000 -500.000 -480.000 -460.000 -440.000 -420.000 -400.000 -380.000 -360.000 -340.000 -320.000 -300.000 -280.000 -260.000 -240.000 -220.000 -200.000 -180.000 -160.000 -140.000 -120.000 -100.000 -80.000 -60.000 -40.000 -20.000 0.000
3820 -2500.000 -2480.000 -2460.000 -2440.000 -2420.000 -2400.000 -2380.000 -2360.000 -2340.000 -2320.000 -2300.000 -2280.000 -2260.000 -2240.000 -2220.000 -2200.000 -2180.000 -2160.000 -2140.000 -2120.000 -2100.000 -2080.000 -2060.000 -2040.000 -2020.000 -2000.000 -1980.000 -1960.000 -1940.000 -1920.000 -1900.000 -1880.000 -1860.000 -1840.000 -1820.000 -1800.000 -1780.000 -1760.000 -1740.000 -1720.000 -1700.000 -1680.000 -1660.000 -1640.000 -1620.000 -1600.000 -1580.000 -1560.000 -1540.000 -1520.000 -1500.000 -1480.000 -1460.000 -1440.000 -1420.000 -1400.000 -1380.000 -1360.000 -1340.000 -1320.000 -1300.000 -1280.000 -1260.000 -1240.000 -1220.000 -1200.000 -1180.000 -1160.000 -1140.000 -1120.000 -1100.000 -1080.000 -1060.000 -1040.000 -1020.000 -1000.000 -980.000 -960.000 -940.000 -920.000 -900.000 -880.000 -860.000 -840.000 -820.000 -800.000 -780.000 -760.000 -740.000 -720.000 -700.000 -680.000 -660.000 -640.000 -620.000 -600.000 -580.000 -560.000 -540.000 -520.000 -500.000 -480.000 -460.000 -440.000 -420.000 -400.000 -380.000 -360.000 -340.000 -320.000 -300.000 -280.000 -260.000 -240.000 -220.000 -200.000 -180.000 -160.000 -140.000 -120.000 -100.000 -80.000 -60.000 -40.000 -20.000 0.000
3840 -2500.000 -2480.000 -2460.000 -2440.000 -2420.000 -2400.000 -2380.000 -2360.000 -2340.000 -2320.000 -2300.000 -2280.000 -2260.000 -2240.000 -2220.000 -2200.000 -2180.000 -2160.000 -2140.000 -2120.000 -2100.000 -2080.000 -2060.000 -2040.000 -2020.000 -2000.000 -1980.000 -1960.000 -1940.000 -1920.000 -1900.000 -1880.000 -1860.000 -1840.000 -1820.000 -1800.000 -1780.000 -1760.000 -1740.000 -1720.000 -1700.000 -1680.000 -1660.000 -1640.000 -1620.000 -1600.000 -1580.000 -1560.000 -1540.000 -1520.000 -1500.000 -1480.000 -1460.000 -1440.000 -1420.000 -1400.000 -1380.000 -1360.000 -1340.000 -1320.000 -1300.000 -1280.000 -1260.000 -1240.000 -1220.000 -1200.000 -1180.000 -1160.000 -1140.000 -1120.000 -1100.000 -1080.000 -1060.000 -1040.000 -1020.000 -1000.000 -980.000 -960.000 -940.000 -920.000 -900.000 -880.000 -860.000 -840.000 -820.000 -800.000 -780.000 -760.000 -740.000 -720.000 -700.000 -680.000 -660.000 -640.000 -620.000 -600.000 -580.000 -560.000 -540.000 -520.000 -500.000 -480.000 -460.000 -440.000 -420.000 -400.000 -380.000 -360.000 -340.000 -320.000 -300.000 -280.000 -260.000 -240.000 -220.000 -200.000 -180.000 -160.000 -140.000 -120.000 -100.000 -80.000 -60.000 -40.000 -20.000 0.000
3860 -2500.000 -2480.000 -2460.000 -2440.000 -2420.000 -2400.000 -2380.000 -2360.000 -2340.000 -2320.000 -2300.000 -2280.000 -2260.000 -2240.000 -2220.000 -2200.000 -2180.000 -2160.000 -2140.000 -2120.000 -2100.000 -2080.000 -2060.000 -2040.000 -2020.000 -2000.000 -1980.000 -1960.000 -1940.000 -1920.000 -1900.000 -1880.000 -1860.000 -1840.000 -1820.000 -1800.000 -1780.000 -1760.000 -1740.000 -1720.000 -1700.000 -1680.000 -1660.000 -1640.000 -1620.000 -1600.000 -1580.000 -1560.000 -1540.000 -1520.000 -1500.000 -1480.000 -1460.000 -1440.000 -1420.000 -1400.000 -1380.000 -1360.000 -1340.000 -1320.000 -1300.000 -1280.000 -1260.000 -1240.000 -1220.000 -1200.000 -1180.000 -1160.000 -1140.000 -1120.000 -1100.000 -1080.000 -1060.000 -1040.000 -1020.000 -1000.000 -980.000 -960.000 -940.000 -920.000 -900.000 -880.000 -860.000 -840.000 -820.000 -800.000 -780.000 -760.000 -740.000 -720.000 -700.000 -680.000 -660.000 -640.000 -620.000 -600.000 -580.000 -560.000 -540.000 -520.000 -500.000 -480.000 -460.000 -440.000 -420.000 -400.000 -380.000 -360.000 -340.000 -320.000 -300.000 -280.000 -260.000 -240.000 -220.000 -200.000 -180.000 -160.000 -140.000 -120.000 -100.000 -80.000 -60.000 -40.000 -20.000 0.000
3880 -2500.000 -2480.000 -2460.000 -2440.000 -2420.000 -2400.000 -2380.000 -2360.000 -2340.000 -2320.000 -2300.000 -2280.000 -2260.000 -2240.000 -2220.000 -2200.000 -2180.000 -2160.000 -2140.000 -2120.000 -2100.000 -2080.000 -2060.000 -2040.000 -2020.000 -2000.000 -1980.000 -1960.000 -1940.000 -1920.000 -1900.000 -1880.000 -1860.000 -1840.000 -1820.000 -1800.000 -1780.000 -1760.000 -1740.000 -1720.000 -1700.000 -1680.000 -1660.000 -1640.000 -1620.000 -1600.000 -1580.000 -1560.000 -1540.000 -1520.000 -1500.000 -1480.000 -1460.000 -1440.000 -1420.000 -1400.000 -1380.000 -1360.000 -1340.000 -1320.000 -1300.000 -1280.000 -1260.000 -1240.000 -1220.000 -1200.000 -1180.000 -1160.000 -1140.000 -1120.000 -1100.000 -1080.000 -1060.000 -1040.000 -1020.000 -1000.000 -980.000 -960.000 -940.000 -920.000 -900.000 -880.000 -860.000 -840.000 -820.000 -800.000 -780.000 -760.000 -740.000 -720.000 -700.000 -680.000 -660.000 -640.000 -620.000 -600.000 -580.000 -560.000 -540.000 -520.000 -500.000 -480.000 -460.000 -440.000 -420.000 -400.000 -380.000 -360.000 -340.000 -320.000 -300.000 -280.000 -260.000 -240.000 -220.000 -200.000 -180.000 -160.000 -140.000 -120.000 -100.000 -80.000 -60.000 -40.000 -20.000 0.000
3900 -2500.000 -2480.000 -2460.000 -2440.000 -2420.000 -2400.000 -2380.000 -2360.000 -2340.000 -2320.000 -2300.000 -2280.000 -2260.000 -2240.000 -2220.000 -2200.000 -2180.000 -2160.000 -2140.000 -2120.000 -2100.000 -2080.000 -2060.000 -2040.000 -2020.000 -2000.000 -1980.000 -1960.000 -1940.000 -1920.000 -1900.000 -1880.000 -1860.000 -1840.000 -1820.000 -1800.000 -1780.000 -1760.000 -1740.000 -1720.000 -1700.000 -1680.000 -1660.000 -1640.000 -1620.000 -1600.000 -1580.000 -1560.000 -1540.000 -1520.000 -1500.000 -1480.000 -1460.000 -1440.000 -1420.000 -1400.000 -1380.000 -1360.000 -1340.000 -1320.000 -1300.000 -1280.000 -1260.000 -1240.000 -1220.000 -1200.000 -1180.000 -1160.000 -1140.000 -1120.000 -1100.000 -1080.000 -1060.000 -1040.000 -1020.000 -1000.000 -980.000 -960.000 -940.000 -920.000 -900.000 -880.000 -860.000 -840.000 -820.000 -800.000 -780.000 -760.000 -740.000 -720.000 -700.000 -680.000 -660.000 -640.000 -620.000 -600.000 -580.000 -560.000 -540.000 -520.000 -500.000 -480.000 -460.000 -440.000 -420.000 -400.000 -380.000 -360.000 -340.000 -320.000 -300.000 -280.000 -260.000 -240.000 -220.000 -200.000 -180.000 -160.000 -140.000 -120.000 -100.000 -80.000 -60.000 -40.000 -20.000 0.000
3920 -2500.000 -2480.000 -2460.000 -2440.000 -2420.000 -2400.000 -2380.000 -2360.000 -2340.000 -2320.000 -2300.000 -2280.000 -2260.000 -2240.000 -2220.000 -2200.000 -2180.000 -2160.000 -2140.000 -2120.000 -2100.000 -2080.000 -2060.000 -2040.000 -2020.000 -2000.000 -1980.000 -1960.000 -1940.000 -1920.000 -1900.000 -1880.000 -1860.000 -1840.000 -1820.000 -1800.000 -1780.000 -1760.000 -1740.000 -1720.000 -1700.000 -1680.000 -1660.000 -1640.000 -1620.000 -1600.000 -1580.000 -1560.000 -1540.000 -1520.000 -1500.000 -1480.000 -1460.000 -1440.000 -1420.000 -1400.000 -1380.000 -1360.000 -1340.000 -1320.000 -1300.000 -1280.000 -1260.000 -1240.000 -1220.000 -1200.000 -1180.000 -1160.000 -1140.000 -1120.000 -1100.000 -1080.000 -1060.000 -1040.000 -1020.000 -1000.000 -980.000 -960.000 -940.000 -920.000 -900.000 -880.000 -860.000 -840.000 -820.000 -800.000 -780.000 -760.000 -740.000 -720.000 -700.000 -680.000 -660.000 -640.000 -620.000 -600.000 -580.000 -560.000 -540.000 -520.000 -500.000 -480.000 -460.000 -440.000 -420.000 -400.000 -380.000 -360.000 -340.000 -320.000 -300.000 -280.000 -260.000 -240.000 -220.000 -200.000 -180.000 -160.000 -140.000 -120.000 -100.000 -80.000 -60.000 -40.000 -20.000 0.000
3940 -2500.000 -2480.000 -2460.000 -2440.000 -2420.000 -2400.000 -2380.000 -2360.000 -2340.000 -2320.000 -2300.000 -2280.000 -2260.000 -2240.000 -2220.000 -2200.000 -2180.000 -2160.000 -2140.000 -2120.000 -2100.000 -2080.000 -2060.000 -2040.000 -2020.000 -2000.000 -1980.000 -1960.000 -1940.000 -1920.000 -1900.000 -1880.000 -1860.000 -1840.000 -1820.000 -1800.000 -1780.000 -1760.000 -1740.000 -1720.000 -1700.000 -1680.000 -1660.000 -1640.000 -1620.000 -1600.000 -1580.000 -1560.000 -1540.000 -1520.000 -1500.000 -1480.000 -1460.000 -1440.000 -1420.000 -1400.000 -1380.000 -1360.000 -1340.000 -1320.000 -1300.000 -1280.000 -1260.000 -1240.000 -1220.000 -1200.000 -1180.000 -1160.000 -1140.000 -1120.000 -1100.000 -1080.000 -1060.000 -1040.000 -1020.000 -1000.000 -980.000 -960.000 -940.000 -920.000 -900.000 -880.000 -860.000 -840.000 -820.000 -800.000 -780.000 -760.000 -740.000 -720.000 -700.000 -680.000 -660.000 -640.000 -620.000 -600.000 -580.000 -560.000 -540.000 -520.000 -500.000 -480.000 -460.000 -440.000 -420.000 -400.000 -380.000 -360.000 -340.000 -320.000 -300.000 -280.000 -260.000 -240.000 -220.000 -200.000 -180.000 -160.000 -140.000 -120.000 -100.000 -80.000 -60.000 -40.000 -20.000 0.000
3960 -2500.000 -2480.000 -2460.000 -2440.000 -2420.000 -2400.000 -2380.000 -2360.000 -2340.000 -2320.000 -2300.000 -2280.000 -2260.000 -2240.000 -2220.000 -2200.000 -2180.000 -2160.000 -2140.000 -2120.000 -2100.000 -2080.000 -2060.000 -2040.000 -2020.000 -2000.000 -1980.000 -1960.000 -1940.000 -1920.000 -1900.000 -1880.000 -1860.000 -1840.000 -1820.000 -1800.000 -1780.000 -1760.000 -1740.000 -1720.000 -1700.000 -1680.000 -1660.000 -1640.000 -1620.000 -1600.000 -1580.000 -1560.000 -1540.000 -1520.000 -1500.000 -1480.000 -1460.000 -1440.000 -1420.000 -1400.000 -1380.000 -1360.000 -1340.000 -1320.000 -1300.000 -1280.000 -1260.000 -1240.000 -1220.000 -1200.000 -1180.000 -1160.000 -1140.000 -1120.000 -1100.000 -1080.000 -1060.000 -1040.000 -1020.000 -1000.000 -980.000 -960.000 -940.000 -920.000 -900.000 -880.000 -860.000 -840.000 -820.000 -800.000 -780.000 -760.000 -740.000 -720.000 -700.000 -680.000 -660.000 -640.000 -620.000 -600.000 -580.000 -560.000 -540.000 -520.000 -500.000 -480.000 -460.000 -440.000 -420.000 -400.000 -380.000 -360.000 -340.000 -320.000 -300.000 -280.000 -260.000 -240.000 -220.000 -200.000 -180.000 -160.000 -140.000 -120.000 -100.000 -80.000 -60.000 -40.000 -20.000 0.000
3980 -2500.000 -2480.000 -2460.000 -2440.000 -2420.000 -2400.000 -2380.000 -2360.000 -2340.000 -2320.000 -2300.000 -2280.000 -2260.000 -2240.000 -2220.000 -2200.000 -2180.000 -2160.000 -2140.000 -2120.000 -2100.000 -2080.000 -2060.000 -2040.000 -2020.000 -2000.000 -1980.000 -1960.000 -1940.000 -1920.000 -1900.000 -1880.000 -1860.000 -1840.000 -1820.000 -1800.000 -1780.000 -1760.000 -1740.000 -1720.000 -1700.000 -1680.000 -1660.000 -1640.000 -1620.000 -1600.000 -1580.000 -1560.000 -1540.000 -1520.000 -1500.000 -1480.000 -1460.000 -1440.000 -1420.000 -1400.000 -1380.000 -1360.000 -1340.000 -1320.000 -1300.000 -1280.000 -1260.000 -1240.000 -1220.000 -1200.000 -1180.000 -1160.000 -1140.000 -1120.000 -1100.000 -1080.000 -1060.000 -1040.000 -1020.000 -1000.000 -980.000 -960.000 -940.000 -920.000 -900.000 -880.000 -860.000 -840.000 -820.000 -800.000 -780.000 -760.000 -740.000 -720.000 -700.000 -680.000 -660.000 -640.000 -620.000 -600.000 -580.000 -560.000 -540.000 -520.000 -500.000 -480.000 -460.000 -440.000 -420.000 -400.000 -380.000 -360.000 -340.000 -320.000 -300.000 -280.000 -260.000 -240.000 -220.000 -200.000 -180.000 -160.000 -140.000 -120.000 -100.000 -80.000 -60.000 -40.000 -20.000 0.000
4000 -2500.000 -2480.000 -2460.000 -2440.000 -2420.000 -2400.000 -2380.000 -2360.000 -2340.000 -2320.000 -2300.000 -2280.000 -2260.000 -2240.000 -2220.000 -2200.000 -2180.000 -2160.000 -2140.000 -2120.000 -2100.000 -2080.000 -2060.000 -2040.000 -2020.000 -2000.000 -1980.000 -1960.000 -1940.000 -1920.000 -1900.000 -1880.000 -1860.000 -1840.000 -1820.000 -1800.000 -1780.000 -1760.000 -1740.000 -1720.000 -1700.000 -1680.000 -1660.000 -1640.000 -1620.000 -1600.000 -1580.000 -1560.000 -1540.000 -1520.000 -1500.000 -1480.000 -1460.000 -1440.000 -1420.000 -1400.000 -1380.000 -1360.000 -1340.000 -1320.000 -1300.000 -1280.000 -1260.000 -1240.000 -1220.000 -1200.000 -1180.000 -1160.000 -1140.000 -1120.000 -1100.000 -1080.000 -1060.000 -1040.000 -1020.000 -1000.000 -980.000 -960.000 -940.000 -920.000 -900.000 -880.000 -860.000 -840.000 -820.000 -800.000 -780.000 -760.000 -740.000 -720.000 -700.000 -680.000 -660.000 -640.000 -620.000 -600.000 -580.000 -560.000 -540.000 -520.000 -500.000 -480.000 -460.000 -440.000 -420.000 -400.000 -380.000 -360.000 -340.000 -320.000 -300.000 -280.000 -260.000 -240.000 -220.000 -200.000 -180.000 -160.000 -140.000 -120.000 -100.000 -80.000 -60.000 -40.000 -20.000 0.000
4020 -2500.000 -2480.000 -2460.000 -2440.000 -2420.000 -2400.000 -2380.000 -2360.000 -2340.000 -2320.000 -2300.000 -2280.000 -2260.000 -2240.000 -2220.000 -2200.000 -2180.000 -2160.000 -2140.000 -2120.000 -2100.000 -2080.000 -2060.000 -2040.000 -2020.000 -2000.000 -1980.000 -1960.000 -1940.000 -1920.000 -1900.000 -1880.000 -1860.000 -1840.000 -1820.000 -1800.000 -1780.000 -1760.000 -1740.000 -1720.000 -1700.000 -1680.000 -1660.000 -1640.000 -1620.000 -1600.000 -1580.000 -1560.000 -1540.000 -1520.000 -1500.000 -1480.000 -1460.000 -1440.000 -1420.000 -1400.000 -1380.000 -1360.000 -1340.000 -1320.000 -1300.000 -1280.000 -1260.000 -1240.000 -1220.000 -1200.000 -1180.000 -1160.000 -1140.000 -1120.000 -1100.000 -1080.000 -1060.000 -1040.000 -1020.000 -1000.000 -980.000 -960.000 -940.000 -920.000 -900.000 -880.000 -860.000 -840.000 -820.000 -800.000 -780.000 -760.000 -740.000 -720.000 -700.000 -680.000 -660.000 -640.000 -620.000 -600.000 -580.000 -560.000 -540.000 -520.000 -500.000 -480.000 -460.000 -440.000 -420.000 -400.000 -380.000 -360.000 -340.000 -320.000 -300.000 -280.000 -260.000 -240.000 -220.000 -200.000 -180.000 -160.000 -140.000 -120.000 -100.000 -80.000 -60.000 -40.000 -20.000 0.000
4040 -2500.000 -2480.000 -2460.000 -2440.000 -2420.000 -2400.000 -2380.000 -2360.000 -2340.000 -2320.000 -2300.000 -2280.000 -2260.000 -2240.000 -2220.000 -2200.000 -2180.000 -2160.000 -2140.000 -2120.000 -2100.000 -2080.000 -2060.000 -2040.000 -2020.000 -2000.000 -1980.000 -1960.000 -1940.000 -1920.000 -1900.000 -1880.000 -1860.000 -1840.000 -1820.000 -1800.000 -1780.000 -1760.000 -1740.000 -1720.000 -1700.000 -1680.000 -1660.000 -1640.000 -1620.000 -1600.000 -1580.000 -1560.000 -1540.000 -1520.000 -1500.000 -1480.000 -1460.000 -1440.000 -1420.000 -1400.000 -1380.000 -1360.000 -1340.000 -1320.000 -1300.000 -1280.000 -1260.000 -1240.000 -1220.000 -1200.000 -1180.000 -1160.000 -1140.000 -1120.000 -1100.000 -1080.000 -1060.000 -1040.000 -1020.000 -1000.000 -980.000 -960.000 -940.000 -920.000 -900.000 -880.000 -860.000 -840.000 -820.000 -800.000 -780.000 -760.000 -740.000 -720.000 -700.000 -680.000 -660.000 -640.000 -620.000 -600.000 -580.000 -560.000 -540.000 -520.000 -500.000 -480.000 -460.000 -440.000 -420.000 -400.000 -380.000 -360.000 -340.000 -320.000 -300.000 -280.000 -260.000 -240.000 -220.000 -200.000 -180.000 -160.000 -140.000 -120.000 -100.000 -80.000 -60.000 -40.000 -20.000 0.000
4060 -2500.000 -2480.000 -2460.000 -2440.000 -2420.000 -2400.000 -2380.000 -2360.000 -2340.000 -2320.000 -2300.000 -2280.000 -2260.000 -2240.000 -2220.000 -2200.000 -2180.000 -2160.000 -2140.000 -2120.000 -2100.000 -2080.000 -2060.000 -2040.000 -2020.000 -2000.000 -1980.000 -1960.000 -1940.000 -1920.000 -1900.000 -1880.000 -1860.000 -1840.000 -1820.000 -1800.000 -1780.000 -1760.000 -1740.000 -1720.000 -1700.000 -1680.000 -1660.000 -1640.000 -1620.000 -1600.000 -1580.000 -1560.000 -1540.000 -1520.000 -1500.000 -1480.000 -1460.000 -1440.000 -1420.000 -1400.000 -1380.000 -1360.000 -1340.000 -1320.000 -1300.000 -1280.000 -1260.000 -1240.000 -1220.000 -1200.000 -1180.000 -1160.000 -1140.000 -1120.000 -1100.000 -1080.000 -1060.000 -1040.000 -1020.000 -1000.000 -980.000 -960.000 -940.000 -920.000 -900.000 -880.000 -860.000 -840.000 -820.000 -800.000 -780.000 -760.000 -740.000 -720.000 -700.000 -680.000 -660.000 -640.000 -620.000 -600.000 -580.000 -560.000 -540.000 -520.000 -500.000 -480.000 -460.000 -440.000 -420.000 -400.000 -380.000 -360.000 -340.000 -320.000 -300.000 -280.000 -260.000 -240.000 -220.000 -200.000 -180.000 -160.000 -140.000 -120.000 -100.000 -80.000 -60.000 -40.000 -20.000 0.000
4080 -2500.000 -2480.000 -2460.000 -2440.000 -2420.000 -2400.000 -2380.000 -2360.000 -2340.000 -2320.000 -2300.000 -2280.000 -2260.000 -2240.000 -2220.000 -2200.000 -2180.000 -2160.000 -2140.000 -2120.000 -2100.000 -2080.000 -2060.000 -2040.000 -2020.000 -2000.000 -1980.000 -1960.000 -1940.000 -1920.000 -1900.000 -1880.000 -1860.000 -1840.000 -1820.000 -1800.000 -1780.000 -1760.000 -1740.000 -1720.000 -1700.000 -1680.000 -1660.000 -1640.000 -1620.000 -1600.000 -1580.000 -1560.000 -1540.000 -1520.000 -1500.000 -1480.000 -1460.000 -1440.000 -1420.000 -1400.000 -1380.000 -1360.000 -1340.000 -1320.000 -1300.000 -1280.000 -1260.000 -1240.000 -1220.000 -1200.000 -1180.000 -1160.000 -1140.000 -1120.000 -1100.000 -1080.000 -1060.000 -1040.000 -1020.000 -1000.000 -980.000 -960.000 -940.000 -920.000 -900.000 -880.000 -860.000 -840.000 -820.000 -800.000 -780.000 -760.000 -740.000 -720.000 -700.000 -680.000 -660.000 -640.000 -620.000 -600.000 -580.000 -560.000 -540.000 -520.000 -500.000 -480.000 -460.000 -440.000 -420.000 -400.000 -380.000 -360.000 -340.000 -320.000 -300.000 -280.000 -260.000 -240.000 -220.000 -200.000 -180.000 -160.000 -140.000 -120.000 -100.000 -80.000 -60.000 -40.000 -20.000 0.000
4100 -2500.000 -2480.000 -2460.000 -2440.000 -2420.000 -2400.000 -2380.000 -2360.000 -2340.000 -2320.000 -2300.000 -2280.000 -2260.000 -2240.000 -2220.000 -2200.000 -2180.000 -2160.000 -2140.000 -2120.000 -2100.000 -2080.000 -2060.000 -2040.000 -2020.000 -2000.000 -1980.000 -1960.000 -1940.000 -1920.000 -1900.000 -1880.000 -1860.000 -1840.000 -1820.000 -1800.000 -1780.000 -1760.000 -1740.000 -1720.000 -1700.000 -1680.000 -1660.000 -1640.000 -1620.000 -1600.000 -1580.000 -1560.000 -1540.000 -1520.000 -1500.000 -1480.000 -1460.000 -1440.000 -1420.000 -1400.000 -1380.000 -1360.000 -1340.000 -1320.000 -1300.000 -1280.000 -1260.000 -1240.000 -1220.000 -1200.000 -1180.000 -1160.000 -1140.000 -1120.000 -1100.000 -1080.000 -1060.000 -1040.000 -1020.000 -1000.000 -980.000 -960.000 -940.000 -920.000 -900.000 -880.000 -860.000 -840.000 -820.000 -800.000 -780.000 -760.000 -740.000 -720.000 -700.000 -680.000 -660.000 -640.000 -620.000 -600.000 -580.000 -560.000 -540.000 -520.000 -500.000 -480.000 -460.000 -440.000 -420.000 -400.000 -380.000 -360.000 -340.000 -320.000 -300.000 -280.000 -260.000 -240.000 -220.000 -200.000 -180.000 -160.000 -140.000 -120.000 -100.000 -80.000 -60.000 -40.000 -20.000 0.000
4120 -2500.000 -2480.000 -2460.000 -2440.000 -2420.000 -2400.000 -2380.000 -2360.000 -2340.000 -2320.000 -2300.000 -2280.000 -2260.000 -2240.000 -2220.000 -2200.000 -2180.000 -2160.000 -2140.000 -2120.000 -2100.000 -2080.000 -2060.000 -2040.000 -2020.000 -2000.000 -1980.000 -1960.000 -1940.000 -1920.000 -1900.000 -1880.000 -1860.000 -1840.000 -1820.000 -1800.000 -1780.000 -1760.000 -1740.000 -1720.000 -1700.000 -1680.000 -1660.000 -1640.000 -1620.000 -1600.000 -1580.000 -1560.000 -1540.000 -1520.000 -1500.000 -1480.000 -1460.000 -1440.000 -1420.000 -1400.000 -1380.000 -1360.000 -1340.000 -1320.000 -1300.000 -1280.000 -1260.000 -1240.000 -1220.000 -1200.000 -1180.000 -1160.000 -1140.000 -1120.000 -1100.000 -1080.000 -1060.000 -1040.000 -1020.000 -1000.000 -980.000 -960.000 -940.000 -920.000 -900.000 -880.000 -860.000 -840.000 -820.000 -800.000 -780.000 -760.000 -740.000 -720.000 -700.000 -680.000 -660.000 -640.000 -620.000 -600.000 -580.000 -560.000 -540.000 -520.000 -500.000 -480.000 -460.000 -440.000 -420.000 -400.000 -380.000 -360.000 -340.000 -320.000 -300.000 -280.000 -260.000 -240.000 -220.000 -200.000 -180.000 -160.000 -140.000 -120.000 -100.000 -80.000 -60.000 -40.000 -20.000 0.000
4140 -2500.000 -2480.000 -2460.000 -2440.000 -2420.000 -2400.000 -2380.000 -2360.000 -2340.000 -2320.000 -2300.000 -2280.000 -2260.000 -2240.000 -2220.000 -2200.000 -2180.000 -2160.000 -2140.000 -2120.000 -2100.000 -2080.000 -2060.000 -2040.000 -2020.000 -2000.000 -1980.000 -1960.000 -1940.000 -1920.000 -1900.000 -1880.000 -1860.000 -1840.000 -1820.000 -1800.000 -1780.000 -1760.000 -1740.000 -1720.000 -1700.000 -1680.000 -1660.000 -1640.000 -1620.000 -1600.000 -1580.000 -1560.000 -1540.000 -1520.000 -1500.000 -1480.000 -1460.000 -1440.000 -1420.000 -1400.000 -1380.000 -1360.000 -1340.000 -1320.000 -1300.000 -1280.000 -1260.000 -1240.000 -1220.000 -1200.000 -1180.000 -1160.000 -1140.000 -1120.000 -1100.000 -1080.000 -1060.000 -1040.000 -1020.000 -1000.000 -980.000 -960.000 -940.000 -920.000 -900.000 -880.000 -860.000 -840.000 -820.000 -800.000 -780.000 -760.000 -740.000 -720.000 -700.000 -680.000 -660.000 -640.000 -620.000 -600.000 -580.000 -560.000 -540.000 -520.000 -500.000 -480.000 -460.000 -440.000 -420.000 -400.000 -380.000 -360.000 -340.000 -320.000 -300.000 -280.000 -260.000 -240.000 -220.000 -200.000 -180.000 -160.000 -140.000 -120.000 -100.000 -80.000 -60.000 -40.000 -20.000 0.000
4160 -2500.000 -2480.000 -2460.000 -2440.000 -2420.000 -2400.000 -2380.000 -2360.000 -2340.000 -2320.000 -2300.000 -2280.000 -2260.000 -2240.000 -2220.000 -2200.000 -2180.000 -2160.000 -2140.000 -2120.000 -2100.000 -2080.000 -2060.000 -2040.000 -2020.000 -2000.000 -1980.000 -1960.000 -1940.000 -1920.000 -1900.000 -1880.000 -1860.000 -1840.000 -1820.000 -1800.000 -1780.000 -1760.000 -1740.000 -1720.000 -1700.000 -1680.000 -1660.000 -1640.000 -1620.000 -1600.000 -1580.000 -1560.000 -1540.000 -1520.000 -1500.000 -1480.000 -1460.000 -1440.000 -1420.000 -1400.000 -1380.000 -1360.000 -1340.000 -1320.000 -1300.000 -1280.000 -1260.000 -1240.000 -1220.000 -1200.000 -1180.000 -1160.000 -1140.000 -1120.000 -1100.000 -1080.000 -1060.000 -1040.000 -1020.000 -1000.000 -980.000 -960.000 -940.000 -920.000 -900.000 -880.000 -860.000 -840.000 -820.000 -800.000 -780.000 -760.000 -740.000 -720.000 -700.000 -680.000 -660.000 -640.000 -620.000 -600.000 -580.000 -560.000 -540.000 -520.000 -500.000 -480.000 -460.000 -440.000 -420.000 -400.000 -380.000 -360.000 -340.000 -320.000 -300.000 -280.000 -260.000 -240.000 -220.000 -200.000 -180.000 -160.000 -140.000 -120.000 -100.000 -80.000 -60.000 -40.000 -20.000 0.000
4180 -2500.000 -2480.000 -2460.000 -2440.000 -2420.000 -2400.000 -2380.000 -2360.000 -2340.000 -2320.000 -2300.000 -2280.000 -2260.000 -2240.000 -2220.000 -2200.000 -2180.000 -2160.000 -2140.000 -2120.000 -2100.000 -2080.000 -2060.000 -2040.000 -2020.000 -2000.000 -1980.000 -1960.000 -1940.000 -1920.000 -1900.000 -1880.000 -1860.000 -1840.000 -1820.000 -1800.000 -1780.000 -1760.000 -1740.000 -1720.000 -1700.000 -1680.000 -1660.000 -1640.000 -1620.000 -1600.000 -1580.000 -1560.000 -1540.000 -1520.000 -1500.000 -1480.000 -1460.000 -1440.000 -1420.000 -1400.000 -1380.000 -1360.000 -1340.000 -1320.000 -1300.000 -1280.000 -1260.000 -1240.000 -1220.000 -1200.000 -1180.000 -1160.000 -1140.000 -1120.000 -1100.000 -1080.000 -1060.000 -1040.000 -1020.000 -1000.000 -980.000 -960.000 -940.000 -920.000 -900.000 -880.000 -860.000 -840.000 -820.000 -800.000 -780.000 -760.000 -740.000 -720.000 -700.000 -680.000 -660.000 -640.000 -620.000 -600.000 -580.000 -560.000 -540.000 -520.000 -500.000 -480.000 -460.000 -440.000 -420.000 -400.000 -380.000 -360.000 -340.000 -320.000 -300.000 -280.000 -260.000 -240.000 -220.000 -200.000 -180.000 -160.000 -140.000 -120.000 -100.000 -80.000 -60.000 -40.000 -20.000 0.000
4200 -2500.000 -2480.000 -2460.000 -2440.000 -2420.000 -2400.000 -2380.000 -2360.000 -2340.000 -2320.000 -2300.000 -2280.000 -2260.000 -2240.000 -2220.000 -2200.000 -2180.000 -2160.000 -2140.000 -2120.000 -2100.000 -2080.000 -2060.000 -2040.000 -2020.000 -2000.000 -1980.000 -1960.000 -1940.000 -1920.000 -1900.000 -1880.000 -1860.000 -1840.000 -1820.000 -1800.000 -1780.000 -1760.000 -1740.000 -1720.000 -1700.000 -1680.000 -1660.000 -1640.000 -1620.000 -1600.000 -1580.000 -1560.000 -1540.000 -1520.000 -1500.000 -1480.000 -1460.000 -1440.000 -1420.000 -1400.000 -1380.000 -1360.000 -1340.000 -1320.000 -1300.000 -1280.000 -1260.000 -1240.000 -1220.000 -1200.000 -1180.000 -1160.000 -1140.000 -1120.000 -1100.000 -1080.000 -1060.000 -1040.000 -1020.000 -1000.000 -980.000 -960.000 -940.000 -920.000 -900.000 -880.000 -860.000 -840.000 -820.000 -800.000 -780.000 -760.000 -740.000 -720.000 -700.000 -680.000 -660.000 -640.000 -620.000 -600.000 -580.000 -560.000 -540.000 -520.000 -500.000 -480.000 -460.000 -440.000 -420.000 -400.000 -380.000 -360.000 -340.000 -320.000 -300.000 -280.000 -260.000 -240.000 -220.000 -200.000 -180.000 -160.000 -140.000 -120.000 -100.000 -80.000 -60.000 -40.000 -20.000 0.000
4220 -2500.000 -2480.000 -2460.000 -2440.000 -2420.000 -2400.000 -2380.000 -2360.000 -2340.000 -2320.000 -2300.000 -2280.000 -2260.000 -2240.000 -2220.000 -2200.000 -2180.000 -2160.000 -2140.000 -2120.000 -2100.000 -2080.000 -2060.000 -2040.000 -2020.000 -2000.000 -1980.000 -1960.000 -1940.000 -1920.000 -1900.000 -1880.000 -1860.000 -1840.000 -1820.000 -1800.000 -1780.000 -1760.000 -1740.000 -1720.000 -1700.000 -1680.000 -1660.000 -1640.000 -1620.000 -1600.000 -1580.000 -1560.000 -1540.000 -1520.000 -1500.000 -1480.000 -1460.000 -1440.000 -1420.000 -1400.000 -1380.000 -1360.000 -1340.000 -1320.000 -1300.000 -1280.000 -1260.000 -1240.000 -1220.000 -1200.000 -1180.000 -1160.000 -1140.000 -1120.000 -1100.000 -1080.000 -1060.000 -1040.000 -1020.000 -1000.000 -980.000 -960.000 -940.000 -920.000 -900.000 -880.000 -860.000 -840.000 -820.000 -800.000 -780.000 -760.000 -740.000 -720.000 -700.000 -680.000 -660.000 -640.000 -620.000 -600.000 -580.000 -560.000 -540.000 -520.000 -500.000 -480.000 -460.000 -440.000 -420.000 -400.000 -380.000 -360.000 -340.000 -320.000 -300.000 -280.000 -260.000 -240.000 -220.000 -200.000 -180.000 -160.000 -140.000 -120.000 -100.000 -80.000 -60.000 -40.000 -20.000 0.000
4240 -2500.000 -2480.000 -2460.000 -2440.000 -2420.000 -2400.000 -2380.000 -2360.000 -2340.000 -2320.000 -2300.000 -2280.000 -2260.000 -2240.000 -2220.000 -2200.000 -2180.000 -2160.000 -2140.000 -2120.000 -2100.000 -2080.000 -2060.000 -2040.000 -2020.000 -2000.000 -1980.000 -1960.000 -1940.000 -1920.000 -1900.000 -1880.000 -1860.000 -1840.000 -1820.000 -1800.000 -1780.000 -1760.000 -1740.000 -1720.000 -1700.000 -1680.000 -1660.000 -1640.000 -1620.000 -1600.000 -1580.000 -1560.000 -1540.000 -1520.000 -1500.000 -1480.000 -1460.000 -1440.000 -1420.000 -1400.000 -1380.000 -1360.000 -1340.000 -1320.000 -1300.000 -1280.000 -1260.000 -1240.000 -1220.000 -1200.000 -1180.000 -1160.000 -1140.000 -1120.000 -1100.000 -1080.000 -1060.000 -1040.000 -1020.000 -1000.000 -980.000 -960.000 -940.000 -920.000 -900.000 -880.000 -860.000 -840.000 -820.000 -800.000 -780.000 -760.000 -740.000 -720.000 -700.000 -680.000 -660.000 -640.000 -620.000 -600.000 -580.000 -560.000 -540.000 -520.000 -500.000 -480.000 -460.000 -440.000 -420.000 -400.000 -380.000 -360.000 -340.000 -320.000 -300.000 -280.000 -260.000 -240.000 -220.000 -200.000 -180.000 -160.000 -140.000 -120.000 -100.000 -80.000 -60.000 -40.000 -20.000 0.000
4260 -2500.000 -2480.000 -2460.000 -2440.000 -2420.000 -2400.000 -2380.000 -2360.000 -2340.000 -2320.000 -2300.000 -2280.000 -2260.000 -2240.000 -2220.000 -2200.000 -2180.000 -2160.000 -2140.000 -2120.000 -2100.000 -2080.000 -2060.000 -2040.000 -2020.000 -2000.000 -1980.000 -1960.000 -1940.000 -1920.000 -1900.000 -1880.000 -1860.000 -1840.000 -1820.000 -1800.000 -1780.000 -1760.000 -1740.000 -1720.000 -1700.000 -1680.000 -1660.000 -1640.000 -1620.000 -1600.000 -1580.000 -1560.000 -1540.000 -1520.000 -1500.000 -1480.000 -1460.000 -1440.000 -1420.000 -1400.000 -1380.000 -1360.000 -1340.000 -1320.000 -1300.000 -1280.000 -1260.000 -1240.000 -1220.000 -1200.000 -1180.000 -1160.000 -1140.000 -1120.000 -1100.000 -1080.000 -1060.000 -1040.000 -1020.000 -1000.000 -980.000 -960.000 -940.000 -920.000 -900.000 -880.000 -860.000 -840.000 -820.000 -800.000 -780.000 -760.000 -740.000 -720.000 -700.000 -680.000 -660.000 -640.000 -620.000 -600.000 -580.000 -560.000 -540.000 -520.000 -500.000 -480.000 -460.000 -440.000 -420.000 -400.000 -380.000 -360.000 -340.000 -320.000 -300.000 -280.000 -260.000 -240.000 -220.000 -200.000 -180.000 -160.000 -140.000 -120.000 -100.000 -80.000 -60.000 -40.000 -20.000 0.000
4280 -2500.000 -2480.000 -2460.000 -2440.000 -2420.000 -2400.000 -2380.000 -2360.000 -2340.000 -2320.000 -2300.000 -2280.000 -2260.000 -2240.000 -2220.000 -2200.000 -2180.000 -2160.000 -2140.000 -2120.000 -2100.000 -2080.000 -2060.000 -2040.000 -2020.000 -2000.000 -1980.000 -1960.000 -1940.000 -1920.000 -1900.000 -1880.000 -1860.000 -1840.000 -1820.000 -1800.000 -1780.000 -1760.000 -1740.000 -1720.000 -1700.000 -1680.000 -1660.000 -1640.000 -1620.000 -1600.000 -1580.000 -1560.000 -1540.000 -1520.000 -1500.000 -1480.000 -1460.000 -1440.000 -1420.000 -1400.000 -1380.000 -1360.000 -1340.000 -1320.000 -1300.000 -1280.000 -1260.000 -1240.000 -1220.000 -1200.000 -1180.000 -1160.000 -1140.000 -1120.000 -1100.000 -1080.000 -1060.000 -1040.000 -1020.000 -1000.000 -980.000 -960.000 -940.000 -920.000 -900.000 -880.000 -860.000 -840.000 -820.000 -800.000 -780.000 -760.000 -740.000 -720.000 -700.000 -680.000 -660.000 -640.000 -620.000 -600.000 -580.000 -560.000 -540.000 -520.000 -500.000 -480.000 -460.000 -440.000 -420.000 -400.000 -380.000 -360.000 -340.000 -320.000 -300.000 -280.000 -260.000 -240.000 -220.000 -200.000 -180.000 -160.000 -140.000 -120.000 -100.000 -80.000 -60.000 -40.000 -20.000 0.000
4300 -2500.000 -2480.000 -2460.000 -2440.000 -2420.000 -2400.000 -2380.000 -2360.000 -2340.000 -2320.000 -2300.000 -2280.000 -2260.000 -2240.000 -2220.000 -2200.000 -2180.000 -2160.000 -2140.000 -2120.000 -2100.000 -2080.000 -2060.000 -2040.000 -2020.000 -2000.000 -1980.000 -1960.000 -1940.000 -1920.000 -1900.000 -1880.000 -1860.000 -1840.000 -1820.000 -1800.000 -1780.000 -1760.000 -1740.000 -1720.000 -1700.000 -1680.000 -1660.000 -1640.000 -1620.000 -1600.000 -1580.000 -1560.000 -1540.000 -1520.000 -1500.000 -1480.000 -1460.000 -1440.000 -1420.000 -1400.000 -1380.000 -1360.000 -1340.000 -1320.000 -1300.000 -1280.000 -1260.000 -1240.000 -1220.000 -1200.000 -1180.000 -1160.000 -1140.000 -1120.000 -1100.000 -1080.000 -1060.000 -1040.000 -1020.000 -1000.000 -980.000 -960.000 -940.000 -920.000 -900.000 -880.000 -860.000 -840.000 -820.000 -800.000 -780.000 -760.000 -740.000 -720.000 -700.000 -680.000 -660.000 -640.000 -620.000 -600.000 -580.000 -560.000 -540.000 -520.000 -500.000 -480.000 -460.000 -440.000 -420.000 -400.000 -380.000 -360.000 -340.000 -320.000 -300.000 -280.000 -260.000 -240.000 -220.000 -200.000 -180.000 -160.000 -140.000 -120.000 -100.000 -80.000 -60.000 -40.000 -20.000 0.000
4320 -2500.000 -2480.000 -2460.000 -2440.000 -2420.000 -2400.000 -2380.000 -2360.000 -2340.000 -2320.000 -2300.000 -2280.000 -2260.000 -2240.000 -2220.000 -2200.000 -2180.000 -2160.000 -2140.000 -2120.000 -2100.000 -2080.000 -2060.000 -2040.000 -2020.000 -2000.000 -1980.000 -1960.000 -1940.000 -1920.000 -1900.000 -1880.000 -1860.000 -1840.000 -1820.000 -1800.000 -1780.000 -1760.000 -1740.000 -1720.000 -1700.000 -1680.000 -1660.000 -1640.000 -1620.000 -1600.000 -1580.000 -1560.000 -1540.000 -1520.000 -1500.000 -1480.000 -1460.000 -1440.000 -1420.000 -1400.000 -1380.000 -1360.000 -1340.000 -1320.000 -1300.000 -1280.000 -1260.000 -1240.000 -1220.000 -1200.000 -1180.000 -1160.000 -1140.000 -1120.000 -1100.000 -1080.000 -1060.000 -1040.000 -1020.000 -1000.000 -980.000 -960.000 -940.000 -920.000 -900.000 -880.000 -860.000 -840.000 -820.000 -800.000 -780.000 -760.000 -740.000 -720.000 -700.000 -680.000 -660.000 -640.000 -620.000 -600.000 -580.000 -560.000 -540.000 -520.000 -500.000 -480.000 -460.000 -440.000 -420.000 -400.000 -380.000 -360.000 -340.000 -320.000 -300.000 -280.000 -260.000 -240.000 -220.000 -200.000 -180.000 -160.000 -140.000 -120.000 -100.000 -80.000 -60.000 -40.000 -20.000 0.000
4340 -2500.000 -2480.000 -2460.000 -2440.000 -2420.000 -2400.000 -2380.000 -2360.000 -2340.000 -2320.000 -2300.000 -2280.000 -2260.000 -2240.000 -2220.000 -2200.000 -2180.000 -2160.000 -2140.000 -2120.000 -2100.000 -2080.000 -2060.000 -2040.000 -2020.000 -2000.000 -1980.000 -1960.000 -1940.000 -1920.000 -1900.000 -1880.000 -1860.000 -1840.000 -1820.000 -1800.000 -1780.000 -1760.000 -1740.000 -1720.000 -1700.000 -1680.000 -1660.000 -1640.000 -1620.000 -1600.000 -1580.000 -1560.000 -1540.000 -1520.000 -1500.000 -1480.000 -1460.000 -1440.000 -1420.000 -1400.000 -1380.000 -1360.000 -1340.000 -1320.000 -1300.000 -1280.000 -1260.000 -1240.000 -1220.000 -1200.000 -1180.000 -1160.000 -1140.000 -1120.000 -1100.000 -1080.000 -1060.000 -1040.000 -1020.000 -1000.000 -980.000 -960.000 -940.000 -920.000 -900.000 -880.000 -860.000 -840.000 -820.000 -800.000 -780.000 -760.000 -740.000 -720.000 -700.000 -680.000 -660.000 -640.000 -620.000 -600.000 -580.000 -560.000 -540.000 -520.000 -500.000 -480.000 -460.000 -440.000 -420.000 -400.000 -380.000 -360.000 -340.000 -320.000 -300.000 -280.000 -260.000 -240.000 -220.000 -200.000 -180.000 -160.000 -140.000 -120.000 -100.000 -80.000 -60.000 -40.000 -20.000 0.000
4360 -2500.000 -2480.000 -2460.000 -2440.000 -2420.000 -2400.000 -2380.000 -2360.000 -2340.000 -2320.000 -2300.000 -2280.000 -2260.000 -2240.000 -2220.000 -2200.000 -2180.000 -2160.000 -2140.000 -2120.000 -2100.000 -2080.000 -2060.000 -2040.000 -2020.000 -2000.000 -1980.000 -1960.000 -1940.000 -1920.000 -1900.000 -1880.000 -1860.000 -1840.000 -1820.000 -1800.000 -1780.000 -1760.000 -1740.000 -1720.000 -1700.000 -1680.000 -1660.000 -1640.000 -1620.000 -1600.000 -1580.000 -1560.000 -1540.000 -1520.000 -1500.000 -1480.000 -1460.000 -1440.000 -1420.000 -1400.000 -1380.000 -1360.000 -1340.000 -1320.000 -1300.000 -1280.000 -1260.000 -1240.000 -1220.000 -1200.000 -1180.000 -1160.000 -1140.000 -1120.000 -1100.000 -1080.000 -1060.000 -1040.000 -1020.000 -1000.000 -980.000 -960.000 -940.000 -920.000 -900.000 -880.000 -860.000 -840.000 -820.000 -800.000 -780.000 -760.000 -740.000 -720.000 -700.000 -680.000 -660.000 -640.000 -620.000 -600.000 -580.000 -560.000 -540.000 -520.000 -500.000 -480.000 -460.000 -440.000 -420.000 -400.000 -380.000 -360.000 -340.000 -320.000 -300.000 -280.000 -260.000 -240.000 -220.000 -200.000 -180.000 -160.000 -140.000 -120.000 -100.000 -80.000 -60.000 -40.000 -20.000 0.000
4380 -2500.000 -2480.000 -2460.000 -2440.000 -2420.000 -2400.000 -2380.000 -2360.000 -2340.000 -2320.000 -2300.000 -2280.000 -2260.000 -2240.000 -2220.000 -2200.000 -2180.000 -2160.000 -2140.000 -2120.000 -2100.000 -2080.000 -2060.000 -2040.000 -2020.000 -2000.000 -1980.000 -1960.000 -1940.000 -1920.000 -1900.000 -1880.000 -1860.000 -1840.000 -1820.000 -1800.000 -1780.000 -1760.000 -1740.000 -1720.000 -1700.000 -1680.000 -1660.000 -1640.000 -1620.000 -1600.000 -1580.000 -1560.000 -1540.000 -1520.000 -1500.000 -1480.000 -1460.000 -1440.000 -1420.000 -1400.000 -1380.000 -1360.000 -1340.000 -1320.000 -1300.000 -1280.000 -1260.000 -1240.000 -1220.000 -1200.000 -1180.000 -1160.000 -1140.000 -1120.000 -1100.000 -1080.000 -1060.000 -1040.000 -1020.000 -1000.000 -980.000 -960.000 -940.000 -920.000 -900.000 -880.000 -860.000 -840.000 -820.000 -800.000 -780.000 -760.000 -740.000 -720.000 -700.000 -680.000 -660.000 -640.000 -620.000 -600.000 -580.000 -560.000 -540.000 -520.000 -500.000 -480.000 -460.000 -440.000 -420.000 -400.000 -380.000 -360.000 -340.000 -320.000 -300.000 -280.000 -260.000 -240.000 -220.000 -200.000 -180.000 -160.000 -140.000 -120.000 -100.000 -80.000 -60.000 -40.000 -20.000 0.000
4400 -2500.000 -2480.000 -2460.000 -2440.000 -2420.000 -2400.000 -2380.000 -2360.000 -2340.000 -2320.000 -2300.000 -2280.000 -2260.000 -2240.000 -2220.000 -2200.000 -2180.000 -2160.000 -2140.000 -2120.000 -2100.000 -2080.000 -2060.000 -2040.000 -2020.000 -2000.000 -1980.000 -1960.000 -1940.000 -1920.000 -1900.000 -1880.000 -1860.000 -1840.000 -1820.000 -1800.000 -1780.000 -1760.000 -1740.000 -1720.000 -1700.000 -1680.000 -1660.000 -1640.000 -1620.000 -1600.000 -1580.000 -1560.000 -1540.000 -1520.000 -1500.000 -1480.000 -1460.000 -1440.000 -1420.000 -1400.000 -1380.000 -1360.000 -1340.000 -1320.000 -1300.000 -1280.000 -1260.000 -1240.000 -1220.000 -1200.000 -1180.000 -1160.000 -1140.000 -1120.000 -1100.000 -1080.000 -1060.000 -1040.000 -1020.000 -1000.000 -980.000 -960.000 -940.000 -920.000 -900.000 -880.000 -860.000 -840.000 -820.000 -800.000 -780.000 -760.000 -740.000 -720.000 -700.000 -680.000 -660.000 -640.000 -620.000 -600.000 -580.000 -560.000 -540.000 -520.000 -500.000 -480.000 -460.000 -440.000 -420.000 -400.000 -380.000 -360.000 -340.000 -320.000 -300.000 -280.000 -260.000 -240.000 -220.000 -200.000 -180.000 -160.000 -140.000 -120.000 -100.000 -80.000 -60.000 -40.000 -20.000 0.000
--------- DATA ACQUISITION -----NS-NSV-NR-NRV---------------------------
-
1
